*Heading
T026 linear SDOF damping implementation verification; SI units
** This is a verification fixture, not physical tower damping calibration.
*Node
1,0.,0.,0.
2,1.,0.,0.
*Nset,nset=BASE
1,
*Nset,nset=TIP
2,
*Nset,nset=ALLN
1,2
*Element,type=T3D2,elset=BAR
1,1,2
*Solid Section,elset=BAR,material=LINEAR
0.001,
*Material,name=LINEAR
*Elastic
1000000.,0.3
*Damping,beta=0.001
*Element,type=MASS,elset=INERTIA
2,2
*Mass,elset=INERTIA,alpha=0.2
1.,
*Boundary
BASE,1,3
TIP,2,3
*Step,name=Preload,nlgeom=NO,inc=100
*Static
0.1,1.,1e-9,0.1
*Cload
TIP,1,1.
*Output,field,frequency=1
*Node Output,nset=ALLN
U,RF
*Output,history,frequency=1
*Node Output,nset=TIP
U1,
*Energy Output
ALLSE,ALLKE,ALLVD,ALLWK,ETOTAL
*End Step
*Step,name=Free,nlgeom=NO,inc=5000,amplitude=STEP
*Dynamic,direct,alpha=0.,beta=0.25,gamma=0.5,application=TRANSIENT FIDELITY
0.00198691765315922,2.
*Cload,op=NEW
TIP,1,0.
*Output,field,frequency=10
*Node Output,nset=ALLN
U,V,A,RF
*Output,history,frequency=1
*Node Output,nset=TIP
U1,V1,A1
*Energy Output
ALLSE,ALLKE,ALLVD,ALLWK,ETOTAL
*End Step
