*Heading
T026 independent PT verification; SI units; E=195GPa A=0.00014m2 L=112m
*Node,nset=ALLN
1,0,0,0
2,112,0,0
*Element,type=T3D2,elset=BODY
1,1,2
*Solid Section,elset=BODY,material=PT
0.00014,
*Material,name=PT
*Elastic
1.95e11,0.3
*Density
7850,
*Element,type=SPRING1,elset=ANCHOR
2,2
*Spring,elset=ANCHOR
1
2437500.
*Initial Conditions,type=STRESS
BODY,1.28e9
*Boundary
1,1,3
2,2,3
*Step,name=ElasticRelease,nlgeom=NO
*Static
0.1,1
*Output,field,frequency=1
*Node Output,nset=ALLN
U,RF
*Element Output,elset=BODY
S,E
*Output,history,frequency=1
*Energy Output
ALLIE,ALLSE
*End Step
