*Heading
T026 uniaxial implementation verification; SI units; not physical calibration
*Node
1,0,0,0
2,1,0,0
3,1,1,0
4,0,1,0
5,0,0,1
6,1,0,1
7,1,1,1
8,0,1,1
*Element,type=C3D8R,elset=BODY
1,1,2,3,4,5,6,7,8
*Nset,nset=XZERO
1,4,5,8
*Nset,nset=YZERO
1,2,5,6
*Nset,nset=ZZERO
1,2,3,4
*Nset,nset=DRIVE
2,3,6,7
*Nset,nset=ALLN,generate
1,8,1
*Solid Section,elset=BODY,material=C65
,
*Material, name=C65
*Density
2400.,
*Elastic
 3.65e+10, 0.2
*Concrete Damaged Plasticity
30.,0.1,1.16,0.666667,1e-5
*Concrete Compression Hardening
 3.08054e+07,          0.
   3.746e+07, 0.000227671
 4.06679e+07, 0.000455342
    4.15e+07, 0.000683014
 4.07435e+07, 0.000910685
 3.89623e+07,  0.00113836
 3.65615e+07,  0.00136603
 2.80955e+07,  0.00204904
 1.91066e+07,  0.00284589
 3.78729e+06,  0.00569178
*Concrete Tension Stiffening
  2.93e+06,     0.
 2.344e+06, 0.0001
 1.758e+06, 0.0002
 1.172e+06, 0.0004
   732500., 0.0006
   293000., 0.0008
    29300.,  0.001
*Concrete Compression Damage
      0.,          0.
      0., 0.000227671
      0., 0.000455342
      0., 0.000683014
 0.01823, 0.000910685
 0.06115,  0.00113836
   0.119,  0.00136603
   0.323,  0.00204904
  0.5396,  0.00284589
 0.90874,  0.00569178
*Concrete Tension Damage
   0.,     0.
  0.2, 0.0001
  0.4, 0.0002
  0.6, 0.0004
 0.75, 0.0006
  0.9, 0.0008
 0.99,  0.001
*Boundary
XZERO,1,1
YZERO,2,2
ZZERO,3,3
*Amplitude,name=PATH
0,0,0.8,1,0.9,0.85,1,1
*Step,name=Uniaxial,nlgeom=NO,inc=2000
*Static
0.001,1,1e-10,0.002
*Boundary,amplitude=PATH
DRIVE,1,1,0.0011
*Output,field,frequency=1
*Node Output,nset=ALLN
U,RF
*Element Output,elset=BODY
S,E,PE,DAMAGET,DAMAGEC
*Output,history,frequency=1
*Energy Output
ALLAE,ALLIE,ALLSE,ALLVD
*End Step
