*Heading
T048 DTU 10 MW distributed-parameter RNA standalone parked modal validation
*Part, name=RNA_DPM
*Node
900000, 0.000000000000e+0, 1.580000000000e+2, 0.000000000000e+0
900001, 0.000000000000e+0, 1.613688057735e+2, -7.072982356451e+0
900002, 0.000000000000e+0, 1.604500000000e+2, 2.687000000000e+0
100001, -3.229990689470e-3, 1.641663530641e+2, -6.955709858448e+0
200001, -3.505957996280e-3, 1.641663239307e+2, -6.955042593758e+0
100002, -3.299577359630e-3, 1.661796963880e+2, -6.869213162971e+0
200002, -3.646193039060e-3, 1.661796602323e+2, -6.868385062797e+0
100003, -4.112189332310e-3, 1.679052261219e+2, -6.793728654244e+0
200003, -5.697315568330e-3, 1.679054717590e+2, -6.799354669350e+0
100004, -4.469582559640e-3, 1.696310360338e+2, -6.728329370073e+0
200004, -5.408671767370e-3, 1.696310891488e+2, -6.729545902384e+0
100005, -5.245755758270e-3, 1.713551509830e+2, -6.623421289131e+0
200005, -8.231144964240e-3, 1.713558035658e+2, -6.638367893275e+0
100006, 2.509378418910e-3, 1.730793655647e+2, -6.520795166754e+0
200006, -3.638561194220e-3, 1.730803118364e+2, -6.542468351895e+0
100007, 8.068285805430e-3, 1.748003497464e+2, -6.349912119744e+0
200007, 3.963006501420e-3, 1.748020243667e+2, -6.388267228792e+0
100008, 1.098763343870e-2, 1.765214585415e+2, -6.207101330422e+0
200008, 1.242856211570e-2, 1.765235498136e+2, -6.254999335645e+0
100009, 1.642029110370e-2, 1.782433790920e+2, -6.025568833093e+0
200009, 2.206436151900e-2, 1.782458230666e+2, -6.081545053888e+0
100010, 2.274041708300e-2, 1.796787130243e+2, -5.887277401647e+0
200010, 3.050744824940e-2, 1.796815136423e+2, -5.951422098674e+0
100011, 2.167772946810e-2, 1.818262968174e+2, -5.695614213526e+0
200011, 3.194248693580e-2, 1.818305949806e+2, -5.794058335428e+0
100012, 2.866430223830e-2, 1.835553361475e+2, -5.553330413523e+0
200012, 3.807604935280e-2, 1.835607869129e+2, -5.678173466413e+0
100013, 3.341977097260e-2, 1.852782231967e+2, -5.407689726523e+0
200013, 4.136003793830e-2, 1.852843172452e+2, -5.547266385656e+0
100014, 3.535667024170e-2, 1.870002838707e+2, -5.256877288341e+0
200014, 4.213753776130e-2, 1.870072495966e+2, -5.416418641185e+0
100015, 3.452984953340e-2, 1.887229073609e+2, -5.118955459181e+0
200015, 4.067979154470e-2, 1.887304635977e+2, -5.292021736376e+0
100016, 3.075729706640e-2, 1.904498285493e+2, -5.068004309032e+0
200016, 3.689187663970e-2, 1.904567812909e+2, -5.227248274017e+0
100017, 2.349352646190e-2, 1.921748469209e+2, -4.973471491961e+0
200017, 2.976897896350e-2, 1.921820539459e+2, -5.138539502910e+0
100018, 1.675157494130e-2, 1.938994018665e+2, -4.879787263307e+0
200018, 2.328939896570e-2, 1.939066252869e+2, -5.045230792087e+0
100019, 1.235400117010e-2, 1.956245525789e+2, -4.785992989856e+0
200019, 1.913022089820e-2, 1.956323816367e+2, -4.965307893162e+0
100020, 1.061165880480e-2, 1.973495732087e+2, -4.691511890136e+0
200020, 1.750879807410e-2, 1.973575486122e+2, -4.874178662356e+0
100021, 1.074083705040e-2, 1.990750220490e+2, -4.616008660465e+0
200021, 1.749593014900e-2, 1.990827099110e+2, -4.792089648620e+0
100022, 1.186311868430e-2, 2.008015624258e+2, -4.556335492370e+0
200022, 1.853651097980e-2, 2.008091080678e+2, -4.729159107015e+0
100023, 1.323320266640e-2, 2.025279015602e+2, -4.492053113824e+0
200023, 1.979095639240e-2, 2.025351608578e+2, -4.658318365020e+0
100024, 1.498982573630e-2, 2.041675873001e+2, -4.435315095614e+0
200024, 2.149929226750e-2, 2.041749573635e+2, -4.604117300900e+0
100025, 1.691407036190e-2, 2.058942488077e+2, -4.373831161594e+0
200025, 2.323889088200e-2, 2.059016290132e+2, -4.542865657098e+0
100026, 1.885630315110e-2, 2.076208541955e+2, -4.317939547904e+0
200026, 2.503862107140e-2, 2.076282023914e+2, -4.486240904454e+0
100027, 2.021035737360e-2, 2.093464115756e+2, -4.247214844817e+0
200027, 2.597442715590e-2, 2.093532109255e+2, -4.402945561379e+0
100028, 2.171943124220e-2, 2.110733439961e+2, -4.194228395189e+0
200028, 2.729770681430e-2, 2.110800492934e+2, -4.347804952974e+0
100029, 2.275429763690e-2, 2.128000335367e+2, -4.137971638238e+0
200029, 2.795207856600e-2, 2.128062094709e+2, -4.279423787561e+0
100030, 2.346662625910e-2, 2.145262100181e+2, -4.081426687687e+0
200030, 2.847901132600e-2, 2.145322587864e+2, -4.219966258663e+0
100031, 2.385401844660e-2, 2.163390559165e+2, -4.017704353332e+0
200031, 2.849248416620e-2, 2.163447158076e+2, -4.147337172334e+0
100032, 2.406579857020e-2, 2.180659607547e+2, -3.966378722964e+0
200032, 2.858931954910e-2, 2.180715599986e+2, -4.094622491588e+0
100033, 2.381708001420e-2, 2.197921721558e+2, -3.908341005259e+0
200033, 2.796463925080e-2, 2.197972706125e+2, -4.025114861767e+0
100034, 2.346587175640e-2, 2.215190719963e+2, -3.856900908822e+0
200034, 2.731563432960e-2, 2.215237713701e+2, -3.964534265990e+0
100035, 2.292402025090e-2, 2.232459782432e+2, -3.805607543013e+0
200035, 2.668818754240e-2, 2.232505965944e+2, -3.911385175663e+0
100036, 2.198849349180e-2, 2.249720989181e+2, -3.747784414437e+0
200036, 2.546418178990e-2, 2.249763736936e+2, -3.845692868735e+0
100037, 2.119599453710e-2, 2.266375299837e+2, -3.700693983581e+0
200037, 2.465337866130e-2, 2.266417396666e+2, -3.797111572646e+0
100038, 2.033863644550e-2, 2.283644790000e+2, -3.652672754885e+0
200038, 2.356381774300e-2, 2.283683673299e+2, -3.741730151627e+0
100039, 1.942793841550e-2, 2.300909318644e+2, -3.602458015528e+0
200039, 2.258807708570e-2, 2.300946732736e+2, -3.688150375178e+0
100040, 1.866395354350e-2, 2.318174394430e+2, -3.553496436949e+0
200040, 2.180092736750e-2, 2.318211175791e+2, -3.637739605068e+0
100041, 1.771276307160e-2, 2.336059877005e+2, -3.497236037590e+0
200041, 2.057434488490e-2, 2.336092156405e+2, -3.571168020721e+0
100042, 1.701970884490e-2, 2.353329813930e+2, -3.447945507398e+0
200042, 1.986128824500e-2, 2.353362452679e+2, -3.522700531232e+0
100043, 1.644048137250e-2, 2.370594331093e+2, -3.397704470161e+0
200043, 1.906064933110e-2, 2.370623473197e+2, -3.464450861836e+0
100044, 1.586459780720e-2, 2.387388278118e+2, -3.356353382991e+0
200044, 1.844933128880e-2, 2.387417230339e+2, -3.422664870345e+0
100045, 1.536724721940e-2, 2.404656142123e+2, -3.304607641015e+0
200045, 1.792691512530e-2, 2.404684608777e+2, -3.369806998076e+0
100046, 1.543144228210e-2, 2.422408377447e+2, -3.270996738108e+0
200046, 1.766093083610e-2, 2.422432180924e+2, -3.325515663257e+0
100047, 1.485913820320e-2, 2.439679027099e+2, -3.223338618184e+0
200047, 1.703068305130e-2, 2.439702748776e+2, -3.277670190506e+0
100048, 1.440156293430e-2, 2.456564093985e+2, -3.191233728534e+0
200048, 1.657570276690e-2, 2.456589463864e+2, -3.249340305692e+0
100049, 1.384874971040e-2, 2.474238148301e+2, -3.178011471135e+0
200049, 1.540253612320e-2, 2.474253953851e+2, -3.214212131728e+0
100050, 1.219578099570e-2, 2.491533670117e+2, -3.171272063928e+0
200050, 1.323200772360e-2, 2.491543023732e+2, -3.192695364929e+0
100051, 9.141047684530e-3, 2.504490272975e+2, -3.162723212165e+0
200051, 9.677207814630e-3, 2.504492861924e+2, -3.168652880550e+0
101001, 2.423994354557e+0, 1.599894213932e+2, -7.321144027979e+0
201001, 2.424157568480e+0, 1.599895868112e+2, -7.320459742245e+0
101002, 4.167529355514e+0, 1.589944851774e+2, -7.497837688939e+0
201002, 4.167733975052e+0, 1.589946940304e+2, -7.496988153286e+0
101003, 5.662299285156e+0, 1.581422515699e+2, -7.647878249834e+0
201003, 5.662879120284e+0, 1.581442317965e+2, -7.653352508029e+0
101004, 7.156322099808e+0, 1.572908017958e+2, -7.807959971159e+0
201004, 7.156745645518e+0, 1.572917444603e+2, -7.809098677965e+0
101005, 8.652074097306e+0, 1.564353960113e+2, -7.928730711740e+0
201005, 8.653001638600e+0, 1.564395993280e+2, -7.943366666920e+0
101006, 1.014347415687e+1, 1.555728785252e+2, -8.052414320868e+0
201006, 1.014572863135e+1, 1.555805428146e+2, -8.073499755619e+0
101007, 1.163833733761e+1, 1.547049446639e+2, -8.108032253426e+0
201007, 1.163893971360e+1, 1.547126634031e+2, -8.145858570584e+0
101008, 1.313250893744e+1, 1.538428831653e+2, -8.191219580759e+0
201008, 1.312997737836e+1, 1.538468562763e+2, -8.238952946407e+0
101009, 1.462904688713e+1, 1.529732137650e+2, -8.236421824635e+0
201009, 1.462410830785e+1, 1.529744404429e+2, -8.292504545084e+0
101010, 1.587463045757e+1, 1.522484381564e+2, -8.287115489987e+0
201010, 1.586832153569e+1, 1.522487228654e+2, -8.351480300532e+0
101011, 1.774241314855e+1, 1.511750715674e+2, -8.377248946083e+0
201011, 1.773355845131e+1, 1.511769367283e+2, -8.475905928104e+0
101012, 1.924135326899e+1, 1.503056948794e+2, -8.462297090784e+0
201012, 1.923192689412e+1, 1.503111708844e+2, -8.587137935496e+0
101013, 2.073635455937e+1, 1.494408118840e+2, -8.543056946501e+0
201013, 2.072710682504e+1, 1.494491619150e+2, -8.682436232747e+0
101014, 2.223244255499e+1, 1.485780907756e+2, -8.618383611972e+0
201014, 2.222301962565e+1, 1.485896152730e+2, -8.777526123986e+0
101015, 2.372942499753e+1, 1.477191578389e+2, -8.706318704416e+0
201015, 2.371980613345e+1, 1.477326995614e+2, -8.878861319468e+0
101016, 2.522502359126e+1, 1.468719931177e+2, -8.880570890292e+0
201016, 2.521593505057e+1, 1.468840428006e+2, -9.039368930699e+0
101017, 2.672401568164e+1, 1.460230941943e+2, -9.011226657390e+0
201017, 2.671463648865e+1, 1.460356565989e+2, -9.175826133341e+0
101018, 2.822228300018e+1, 1.451740820317e+2, -9.142700375526e+0
201018, 2.821275842254e+1, 1.451864589755e+2, -9.307693029432e+0
101019, 2.971990042189e+1, 1.443227418772e+2, -9.274319844612e+0
201019, 2.970973214912e+1, 1.443364237862e+2, -9.453122689783e+0
101020, 3.121612984264e+1, 1.434690850847e+2, -9.405443786223e+0
201020, 3.120577437096e+1, 1.434830277019e+2, -9.587588494895e+0
101021, 3.271036050090e+1, 1.426160760536e+2, -9.555526389682e+0
201021, 3.270032507058e+1, 1.426294240057e+2, -9.731112184118e+0
101022, 3.420384147004e+1, 1.417637385575e+2, -9.721475800091e+0
201022, 3.419397005626e+1, 1.417768022571e+2, -9.893816647249e+0
101023, 3.569737281910e+1, 1.409106853173e+2, -9.882861013100e+0
201023, 3.568780720607e+1, 1.409231345554e+2, -1.004867220335e+1
101024, 3.711538298150e+1, 1.401006204991e+2, -1.004044839720e+1
201024, 3.710574558606e+1, 1.401133876782e+2, -1.020877841604e+1
101025, 3.860870414726e+1, 1.392472961131e+2, -1.020468398092e+1
201025, 3.859915029159e+1, 1.392602478890e+2, -1.037323102717e+1
101026, 4.010154579945e+1, 1.383947119508e+2, -1.037444221395e+1
201026, 4.009209091615e+1, 1.384077068269e+2, -1.054224955000e+1
101027, 4.159489698135e+1, 1.375412154863e+2, -1.052935548488e+1
201027, 4.158612653669e+1, 1.375532022153e+2, -1.068463236458e+1
101028, 4.308801807479e+1, 1.366892235905e+2, -1.070199567703e+1
201028, 4.307942197919e+1, 1.367011360150e+2, -1.085511667021e+1
101029, 4.458141357197e+1, 1.358373335680e+2, -1.087133539985e+1
201029, 4.457346616559e+1, 1.358482538705e+2, -1.101237247073e+1
101030, 4.607454945916e+1, 1.349859349589e+2, -1.104029904910e+1
201030, 4.606680487961e+1, 1.349966980190e+2, -1.117842617299e+1
101031, 4.764316185575e+1, 1.340915347464e+2, -1.121343005882e+1
201031, 4.763594101341e+1, 1.341016504247e+2, -1.134267304696e+1
101032, 4.913678244284e+1, 1.332408918403e+2, -1.138761063578e+1
201032, 4.912967159493e+1, 1.332509554128e+2, -1.151546382626e+1
101033, 5.063054165254e+1, 1.323901108812e+2, -1.155503053558e+1
201033, 5.062405247992e+1, 1.323992496977e+2, -1.167145090641e+1
101034, 5.212444806196e+1, 1.315399412162e+2, -1.172905480599e+1
201034, 5.211845340352e+1, 1.315483415217e+2, -1.183636437360e+1
101035, 5.361844424490e+1, 1.306899520043e+2, -1.190321057992e+1
201035, 5.361256255180e+1, 1.306982240612e+2, -1.200866855474e+1
101036, 5.511245238958e+1, 1.298398358518e+2, -1.207077896831e+1
201036, 5.510701248131e+1, 1.298474998099e+2, -1.216839090754e+1
101037, 5.655322018457e+1, 1.290206473860e+2, -1.224106457962e+1
201037, 5.654784580021e+1, 1.290281647758e+2, -1.233719278183e+1
101038, 5.804716404125e+1, 1.281713356242e+2, -1.241843696329e+1
201038, 5.804218405811e+1, 1.281782517942e+2, -1.250722945835e+1
101039, 5.954087208707e+1, 1.273220266287e+2, -1.259357218662e+1
201039, 5.953605186230e+1, 1.273286324498e+2, -1.267901394270e+1
101040, 6.103445939243e+1, 1.264727275325e+2, -1.276996449152e+1
201040, 6.102970554617e+1, 1.264791955171e+2, -1.285396357953e+1
101041, 6.258221555860e+1, 1.255923259375e+2, -1.294720694777e+1
201041, 6.257798928957e+1, 1.255979085906e+2, -1.302093292021e+1
101042, 6.407621161271e+1, 1.247426852878e+2, -1.312334271258e+1
201042, 6.407196422449e+1, 1.247483748293e+2, -1.319788551808e+1
101043, 6.556975491761e+1, 1.238930874589e+2, -1.329847680723e+1
201043, 6.556592105339e+1, 1.238980958534e+2, -1.336503998153e+1
101044, 6.702202805180e+1, 1.230676368682e+2, -1.347627128710e+1
201044, 6.701822834920e+1, 1.230726284707e+2, -1.354239936493e+1
101045, 6.851593273411e+1, 1.222176089060e+2, -1.364996758987e+1
201045, 6.851218761560e+1, 1.222225010188e+2, -1.371498799347e+1
101046, 7.004997600529e+1, 1.213457916285e+2, -1.384794274972e+1
201046, 7.004679981945e+1, 1.213498054643e+2, -1.390231876318e+1
101047, 7.154384996046e+1, 1.204962245786e+2, -1.402571072119e+1
201047, 7.154070983057e+1, 1.205002680009e+2, -1.407989607768e+1
101048, 7.300322722893e+1, 1.196674239395e+2, -1.421384168533e+1
201048, 7.299994306300e+1, 1.196718762329e+2, -1.427178069497e+1
101049, 7.452929517839e+1, 1.188026142814e+2, -1.443090840824e+1
201049, 7.452714948442e+1, 1.188052161491e+2, -1.446701971555e+1
101050, 7.602276675484e+1, 1.179580933798e+2, -1.464937121490e+1
201050, 7.602143859463e+1, 1.179595324608e+2, -1.467075044616e+1
101051, 7.714274427014e+1, 1.173265482706e+2, -1.480943098749e+1
201051, 7.714225198050e+1, 1.173267314687e+2, -1.481536727848e+1
102001, -2.420764363868e+0, 1.599838481740e+2, -7.321631621478e+0
202001, -2.420651610483e+0, 1.599835374215e+2, -7.320988995264e+0
102002, -4.164229778154e+0, 1.589887918892e+2, -7.498335787114e+0
202002, -4.164087782013e+0, 1.589884026707e+2, -7.497538575932e+0
102003, -5.658187095823e+0, 1.581351561524e+2, -7.648499018429e+0
202003, -5.657181804716e+0, 1.581344013073e+2, -7.654212564387e+0
102004, -7.151852517249e+0, 1.572830897106e+2, -7.808634691184e+0
202004, -7.151336973751e+0, 1.572824120144e+2, -7.809915161182e+0
102005, -8.646828341548e+0, 1.564263446705e+2, -7.929522601454e+0
202005, -8.644770493636e+0, 1.564253968180e+2, -7.944609225539e+0
102006, -1.014598353529e+1, 1.555772083569e+2, -8.052035509683e+0
202006, -1.014209007015e+1, 1.555742646234e+2, -8.074049026175e+0
102007, -1.164640562341e+1, 1.547188661670e+2, -8.106814279728e+0
202007, -1.164290272010e+1, 1.547195014116e+2, -8.145260322357e+0
102008, -1.314349657088e+1, 1.538618418854e+2, -8.189560907672e+0
202008, -1.314240594048e+1, 1.538683012610e+2, -8.237076753357e+0
102009, -1.464546717824e+1, 1.530015463177e+2, -8.233943047463e+0
202009, -1.464617266937e+1, 1.530125116124e+2, -8.289173749345e+0
102010, -1.589737087465e+1, 1.522876758327e+2, -8.283682638135e+0
202010, -1.589882898394e+1, 1.523013622419e+2, -8.346874951832e+0
102011, -1.776409087802e+1, 1.512124756188e+2, -8.373976515613e+0
202011, -1.776550093824e+1, 1.512320522064e+2, -8.471083948583e+0
102012, -1.927001757123e+1, 1.503551539815e+2, -8.457969980042e+0
202012, -1.927000294347e+1, 1.503768695781e+2, -8.581390044589e+0
102013, -2.076977433035e+1, 1.494984763564e+2, -8.538011958879e+0
202013, -2.076846686298e+1, 1.495205269990e+2, -8.676192596918e+0
102014, -2.226779922524e+1, 1.486390972898e+2, -8.613046233572e+0
202014, -2.226515716341e+1, 1.486623219018e+2, -8.771165118203e+0
102015, -2.376395484706e+1, 1.477787377072e+2, -8.701106141361e+0
202015, -2.376048592500e+1, 1.478028909076e+2, -8.872720372393e+0
102016, -2.525578088833e+1, 1.469250635983e+2, -8.875927824871e+0
202016, -2.525282692721e+1, 1.469476982518e+2, -9.033799800344e+0
102017, -2.674750920810e+1, 1.460636313306e+2, -9.007680117520e+0
202017, -2.674440546762e+1, 1.460870217763e+2, -9.171332262616e+0
102018, -2.823903457512e+1, 1.452029862014e+2, -9.140171588351e+0
202018, -2.823604782151e+1, 1.452266438979e+2, -9.304177304276e+0
102019, -2.973225442306e+1, 1.443440582100e+2, -9.272454907146e+0
202019, -2.972886237002e+1, 1.443694322139e+2, -9.450234826556e+0
102020, -3.122674150145e+1, 1.434873950757e+2, -9.403841869581e+0
202020, -3.122328316904e+1, 1.435132384297e+2, -9.584945398699e+0
102021, -3.272110133795e+1, 1.426346089365e+2, -9.553904972527e+0
202021, -3.271782100073e+1, 1.426596125304e+2, -9.728471030440e+0
102022, -3.421570458872e+1, 1.417842078922e+2, -9.719684965349e+0
202022, -3.421250656724e+1, 1.418087862622e+2, -9.891018409388e+0
102023, -3.571060602177e+1, 1.409335186770e+2, -9.880863352981e+0
202023, -3.570759816246e+1, 1.409572830557e+2, -1.004568459669e+1
102024, -3.713037280724e+1, 1.401264848413e+2, -1.003818556046e+1
202024, -3.712724487833e+1, 1.401504838434e+2, -1.020553292213e+1
102025, -3.862561821762e+1, 1.392764806621e+2, -1.020213066374e+1
202025, -3.862238918247e+1, 1.393003456617e+2, -1.036972292663e+1
102026, -4.012040210260e+1, 1.384272477445e+2, -1.037159570084e+1
202026, -4.011712953723e+1, 1.384509099618e+2, -1.053846976547e+1
102027, -4.161510733872e+1, 1.375760876461e+2, -1.052630456623e+1
202027, -4.161210096385e+1, 1.375980200460e+2, -1.068071131247e+1
102028, -4.310973750603e+1, 1.367266995966e+2, -1.069871695134e+1
202028, -4.310671968600e+1, 1.367482371116e+2, -1.085099585822e+1
102029, -4.460416786961e+1, 1.358765951945e+2, -1.086790045261e+1
202029, -4.460141824415e+1, 1.358964840592e+2, -1.100815287597e+1
102030, -4.609801608541e+1, 1.350264256799e+2, -1.103675657004e+1
202030, -4.609528389094e+1, 1.350458374091e+2, -1.117412703342e+1
102031, -4.766701587420e+1, 1.341326938971e+2, -1.120982909974e+1
202031, -4.766443349757e+1, 1.341508130616e+2, -1.133837187356e+1
102032, -4.916084824141e+1, 1.332824164090e+2, -1.138397770676e+1
202032, -4.915826091448e+1, 1.333002851353e+2, -1.151114803476e+1
102033, -5.065435873256e+1, 1.324312062961e+2, -1.155143515266e+1
202033, -5.065201711917e+1, 1.324475015594e+2, -1.166722941551e+1
102034, -5.214791393371e+1, 1.315804306354e+2, -1.172551244083e+1
202034, -5.214576903785e+1, 1.315954735515e+2, -1.183224085530e+1
102035, -5.364136826515e+1, 1.307295064804e+2, -1.189975001167e+1
202035, -5.363925073935e+1, 1.307442734568e+2, -1.200463975467e+1
102036, -5.513444088307e+1, 1.298777761141e+2, -1.206745962547e+1
202036, -5.513247666310e+1, 1.298914372327e+2, -1.216454688114e+1
102037, -5.657441617910e+1, 1.290572202232e+2, -1.223786487098e+1
202037, -5.657249917887e+1, 1.290707031903e+2, -1.233347115279e+1
102038, -5.806750267769e+1, 1.282064291244e+2, -1.241536667986e+1
202038, -5.806574787586e+1, 1.282189102152e+2, -1.250367230744e+1
102039, -5.956030002548e+1, 1.273555487561e+2, -1.259063938050e+1
202039, -5.955863993938e+1, 1.273676072695e+2, -1.267560408782e+1
102040, -6.105312334598e+1, 1.265049314347e+2, -1.276714701516e+1
202040, -6.105150647354e+1, 1.265168121416e+2, -1.285067255133e+1
102041, -6.259992832167e+1, 1.256228885987e+2, -1.294453306139e+1
202041, -6.259856363445e+1, 1.256334087963e+2, -1.301782705466e+1
102042, -6.409323132155e+1, 1.247720521118e+2, -1.312077344840e+1
202042, -6.409182551274e+1, 1.247826446844e+2, -1.319488729426e+1
102043, -6.558619539898e+1, 1.239214548491e+2, -1.329599498217e+1
202043, -6.558498170272e+1, 1.239309842382e+2, -1.336216262070e+1
102044, -6.703789264961e+1, 1.230950105944e+2, -1.347387639637e+1
202044, -6.703667768049e+1, 1.231044620507e+2, -1.353961428756e+1
102045, -6.853129998133e+1, 1.222441244738e+2, -1.364764777828e+1
202045, -6.853011453072e+1, 1.222534331907e+2, -1.371228177909e+1
102046, -7.006540744757e+1, 1.213724179623e+2, -1.384561324737e+1
202046, -7.006446075029e+1, 1.213802786910e+2, -1.389965270130e+1
102047, -7.155870909867e+1, 1.205218634247e+2, -1.402346761281e+1
202047, -7.155774051362e+1, 1.205296537604e+2, -1.407732515686e+1
102048, -7.301762879186e+1, 1.196922732578e+2, -1.421166765168e+1
202048, -7.301651876576e+1, 1.197004769422e+2, -1.426927845714e+1
102049, -7.454314392810e+1, 1.188265097428e+2, -1.442881782626e+1
202049, -7.454255202054e+1, 1.188317926065e+2, -1.446469457681e+1
102050, -7.603496253583e+1, 1.179791367100e+2, -1.464753016207e+1
202050, -7.603467060236e+1, 1.179823637586e+2, -1.466875296643e+1
102051, -7.715188531782e+1, 1.173423207812e+2, -1.480805107162e+1
202051, -7.715192918831e+1, 1.173434291021e+2, -1.481390642486e+1
*Nset, nset=RNA_TOP
900000,
*Nset, nset=RNA_RIGID
900001, 900002, 100001, 101001, 102001,
*Element, type=B31
300001, 100001, 100002
300002, 100002, 100003
300003, 100003, 100004
300004, 100004, 100005
300005, 100005, 100006
300006, 100006, 100007
300007, 100007, 100008
300008, 100008, 100009
300009, 100009, 100010
300010, 100010, 100011
300011, 100011, 100012
300012, 100012, 100013
300013, 100013, 100014
300014, 100014, 100015
300015, 100015, 100016
300016, 100016, 100017
300017, 100017, 100018
300018, 100018, 100019
300019, 100019, 100020
300020, 100020, 100021
300021, 100021, 100022
300022, 100022, 100023
300023, 100023, 100024
300024, 100024, 100025
300025, 100025, 100026
300026, 100026, 100027
300027, 100027, 100028
300028, 100028, 100029
300029, 100029, 100030
300030, 100030, 100031
300031, 100031, 100032
300032, 100032, 100033
300033, 100033, 100034
300034, 100034, 100035
300035, 100035, 100036
300036, 100036, 100037
300037, 100037, 100038
300038, 100038, 100039
300039, 100039, 100040
300040, 100040, 100041
300041, 100041, 100042
300042, 100042, 100043
300043, 100043, 100044
300044, 100044, 100045
300045, 100045, 100046
300046, 100046, 100047
300047, 100047, 100048
300048, 100048, 100049
300049, 100049, 100050
300050, 100050, 100051
301001, 101001, 101002
301002, 101002, 101003
301003, 101003, 101004
301004, 101004, 101005
301005, 101005, 101006
301006, 101006, 101007
301007, 101007, 101008
301008, 101008, 101009
301009, 101009, 101010
301010, 101010, 101011
301011, 101011, 101012
301012, 101012, 101013
301013, 101013, 101014
301014, 101014, 101015
301015, 101015, 101016
301016, 101016, 101017
301017, 101017, 101018
301018, 101018, 101019
301019, 101019, 101020
301020, 101020, 101021
301021, 101021, 101022
301022, 101022, 101023
301023, 101023, 101024
301024, 101024, 101025
301025, 101025, 101026
301026, 101026, 101027
301027, 101027, 101028
301028, 101028, 101029
301029, 101029, 101030
301030, 101030, 101031
301031, 101031, 101032
301032, 101032, 101033
301033, 101033, 101034
301034, 101034, 101035
301035, 101035, 101036
301036, 101036, 101037
301037, 101037, 101038
301038, 101038, 101039
301039, 101039, 101040
301040, 101040, 101041
301041, 101041, 101042
301042, 101042, 101043
301043, 101043, 101044
301044, 101044, 101045
301045, 101045, 101046
301046, 101046, 101047
301047, 101047, 101048
301048, 101048, 101049
301049, 101049, 101050
301050, 101050, 101051
302001, 102001, 102002
302002, 102002, 102003
302003, 102003, 102004
302004, 102004, 102005
302005, 102005, 102006
302006, 102006, 102007
302007, 102007, 102008
302008, 102008, 102009
302009, 102009, 102010
302010, 102010, 102011
302011, 102011, 102012
302012, 102012, 102013
302013, 102013, 102014
302014, 102014, 102015
302015, 102015, 102016
302016, 102016, 102017
302017, 102017, 102018
302018, 102018, 102019
302019, 102019, 102020
302020, 102020, 102021
302021, 102021, 102022
302022, 102022, 102023
302023, 102023, 102024
302024, 102024, 102025
302025, 102025, 102026
302026, 102026, 102027
302027, 102027, 102028
302028, 102028, 102029
302029, 102029, 102030
302030, 102030, 102031
302031, 102031, 102032
302032, 102032, 102033
302033, 102033, 102034
302034, 102034, 102035
302035, 102035, 102036
302036, 102036, 102037
302037, 102037, 102038
302038, 102038, 102039
302039, 102039, 102040
302040, 102040, 102041
302041, 102041, 102042
302042, 102042, 102043
302043, 102043, 102044
302044, 102044, 102045
302045, 102045, 102046
302046, 102046, 102047
302047, 102047, 102048
302048, 102048, 102049
302049, 102049, 102050
302050, 102050, 102051
*Elset, elset=B1S01
300001,
*Elset, elset=B1S02
300002,
*Elset, elset=B1S03
300003,
*Elset, elset=B1S04
300004,
*Elset, elset=B1S05
300005,
*Elset, elset=B1S06
300006,
*Elset, elset=B1S07
300007,
*Elset, elset=B1S08
300008,
*Elset, elset=B1S09
300009,
*Elset, elset=B1S10
300010,
*Elset, elset=B1S11
300011,
*Elset, elset=B1S12
300012,
*Elset, elset=B1S13
300013,
*Elset, elset=B1S14
300014,
*Elset, elset=B1S15
300015,
*Elset, elset=B1S16
300016,
*Elset, elset=B1S17
300017,
*Elset, elset=B1S18
300018,
*Elset, elset=B1S19
300019,
*Elset, elset=B1S20
300020,
*Elset, elset=B1S21
300021,
*Elset, elset=B1S22
300022,
*Elset, elset=B1S23
300023,
*Elset, elset=B1S24
300024,
*Elset, elset=B1S25
300025,
*Elset, elset=B1S26
300026,
*Elset, elset=B1S27
300027,
*Elset, elset=B1S28
300028,
*Elset, elset=B1S29
300029,
*Elset, elset=B1S30
300030,
*Elset, elset=B1S31
300031,
*Elset, elset=B1S32
300032,
*Elset, elset=B1S33
300033,
*Elset, elset=B1S34
300034,
*Elset, elset=B1S35
300035,
*Elset, elset=B1S36
300036,
*Elset, elset=B1S37
300037,
*Elset, elset=B1S38
300038,
*Elset, elset=B1S39
300039,
*Elset, elset=B1S40
300040,
*Elset, elset=B1S41
300041,
*Elset, elset=B1S42
300042,
*Elset, elset=B1S43
300043,
*Elset, elset=B1S44
300044,
*Elset, elset=B1S45
300045,
*Elset, elset=B1S46
300046,
*Elset, elset=B1S47
300047,
*Elset, elset=B1S48
300048,
*Elset, elset=B1S49
300049,
*Elset, elset=B1S50
300050,
*Elset, elset=B2S01
301001,
*Elset, elset=B2S02
301002,
*Elset, elset=B2S03
301003,
*Elset, elset=B2S04
301004,
*Elset, elset=B2S05
301005,
*Elset, elset=B2S06
301006,
*Elset, elset=B2S07
301007,
*Elset, elset=B2S08
301008,
*Elset, elset=B2S09
301009,
*Elset, elset=B2S10
301010,
*Elset, elset=B2S11
301011,
*Elset, elset=B2S12
301012,
*Elset, elset=B2S13
301013,
*Elset, elset=B2S14
301014,
*Elset, elset=B2S15
301015,
*Elset, elset=B2S16
301016,
*Elset, elset=B2S17
301017,
*Elset, elset=B2S18
301018,
*Elset, elset=B2S19
301019,
*Elset, elset=B2S20
301020,
*Elset, elset=B2S21
301021,
*Elset, elset=B2S22
301022,
*Elset, elset=B2S23
301023,
*Elset, elset=B2S24
301024,
*Elset, elset=B2S25
301025,
*Elset, elset=B2S26
301026,
*Elset, elset=B2S27
301027,
*Elset, elset=B2S28
301028,
*Elset, elset=B2S29
301029,
*Elset, elset=B2S30
301030,
*Elset, elset=B2S31
301031,
*Elset, elset=B2S32
301032,
*Elset, elset=B2S33
301033,
*Elset, elset=B2S34
301034,
*Elset, elset=B2S35
301035,
*Elset, elset=B2S36
301036,
*Elset, elset=B2S37
301037,
*Elset, elset=B2S38
301038,
*Elset, elset=B2S39
301039,
*Elset, elset=B2S40
301040,
*Elset, elset=B2S41
301041,
*Elset, elset=B2S42
301042,
*Elset, elset=B2S43
301043,
*Elset, elset=B2S44
301044,
*Elset, elset=B2S45
301045,
*Elset, elset=B2S46
301046,
*Elset, elset=B2S47
301047,
*Elset, elset=B2S48
301048,
*Elset, elset=B2S49
301049,
*Elset, elset=B2S50
301050,
*Elset, elset=B3S01
302001,
*Elset, elset=B3S02
302002,
*Elset, elset=B3S03
302003,
*Elset, elset=B3S04
302004,
*Elset, elset=B3S05
302005,
*Elset, elset=B3S06
302006,
*Elset, elset=B3S07
302007,
*Elset, elset=B3S08
302008,
*Elset, elset=B3S09
302009,
*Elset, elset=B3S10
302010,
*Elset, elset=B3S11
302011,
*Elset, elset=B3S12
302012,
*Elset, elset=B3S13
302013,
*Elset, elset=B3S14
302014,
*Elset, elset=B3S15
302015,
*Elset, elset=B3S16
302016,
*Elset, elset=B3S17
302017,
*Elset, elset=B3S18
302018,
*Elset, elset=B3S19
302019,
*Elset, elset=B3S20
302020,
*Elset, elset=B3S21
302021,
*Elset, elset=B3S22
302022,
*Elset, elset=B3S23
302023,
*Elset, elset=B3S24
302024,
*Elset, elset=B3S25
302025,
*Elset, elset=B3S26
302026,
*Elset, elset=B3S27
302027,
*Elset, elset=B3S28
302028,
*Elset, elset=B3S29
302029,
*Elset, elset=B3S30
302030,
*Elset, elset=B3S31
302031,
*Elset, elset=B3S32
302032,
*Elset, elset=B3S33
302033,
*Elset, elset=B3S34
302034,
*Elset, elset=B3S35
302035,
*Elset, elset=B3S36
302036,
*Elset, elset=B3S37
302037,
*Elset, elset=B3S38
302038,
*Elset, elset=B3S39
302039,
*Elset, elset=B3S40
302040,
*Elset, elset=B3S41
302041,
*Elset, elset=B3S42
302042,
*Elset, elset=B3S43
302043,
*Elset, elset=B3S44
302044,
*Elset, elset=B3S45
302045,
*Elset, elset=B3S46
302046,
*Elset, elset=B3S47
302047,
*Elset, elset=B3S48
302048,
*Elset, elset=B3S49
302049,
*Elset, elset=B3S50
302050,
*Element, type=MASS, elset=M_800001
800001, 900001
*Mass, elset=M_800001
1.055200000000e+5
*Element, type=MASS, elset=M_800002
800002, 900002
*Mass, elset=M_800002
4.460362500000e+5
*Element, type=MASS, elset=M_820001
820001, 200001
*Mass, elset=M_820001
1.199552608362e+3
*Element, type=MASS, elset=M_820002
820002, 200002
*Mass, elset=M_820002
2.232807904162e+3
*Element, type=MASS, elset=M_820003
820003, 200003
*Mass, elset=M_820003
2.065584802354e+3
*Element, type=MASS, elset=M_820004
820004, 200004
*Mass, elset=M_820004
2.016026809194e+3
*Element, type=MASS, elset=M_820005
820005, 200005
*Mass, elset=M_820005
1.921884371741e+3
*Element, type=MASS, elset=M_820006
820006, 200006
*Mass, elset=M_820006
1.809529505252e+3
*Element, type=MASS, elset=M_820007
820007, 200007
*Mass, elset=M_820007
1.685397003703e+3
*Element, type=MASS, elset=M_820008
820008, 200008
*Mass, elset=M_820008
1.577193440530e+3
*Element, type=MASS, elset=M_820009
820009, 200009
*Mass, elset=M_820009
1.382585288471e+3
*Element, type=MASS, elset=M_820010
820010, 200010
*Mass, elset=M_820010
1.500042403153e+3
*Element, type=MASS, elset=M_820011
820011, 200011
*Mass, elset=M_820011
1.520948123249e+3
*Element, type=MASS, elset=M_820012
820012, 200012
*Mass, elset=M_820012
1.272177394192e+3
*Element, type=MASS, elset=M_820013
820013, 200013
*Mass, elset=M_820013
1.196485338757e+3
*Element, type=MASS, elset=M_820014
820014, 200014
*Mass, elset=M_820014
1.133299937287e+3
*Element, type=MASS, elset=M_820015
820015, 200015
*Mass, elset=M_820015
1.080268932617e+3
*Element, type=MASS, elset=M_820016
820016, 200016
*Mass, elset=M_820016
1.031024240022e+3
*Element, type=MASS, elset=M_820017
820017, 200017
*Mass, elset=M_820017
1.003030202763e+3
*Element, type=MASS, elset=M_820018
820018, 200018
*Mass, elset=M_820018
9.773375433187e+2
*Element, type=MASS, elset=M_820019
820019, 200019
*Mass, elset=M_820019
9.471574973757e+2
*Element, type=MASS, elset=M_820020
820020, 200020
*Mass, elset=M_820020
9.148644492509e+2
*Element, type=MASS, elset=M_820021
820021, 200021
*Mass, elset=M_820021
8.827377480929e+2
*Element, type=MASS, elset=M_820022
820022, 200022
*Mass, elset=M_820022
8.543231952591e+2
*Element, type=MASS, elset=M_820023
820023, 200023
*Mass, elset=M_820023
8.047574066076e+2
*Element, type=MASS, elset=M_820024
820024, 200024
*Mass, elset=M_820024
7.754785279639e+2
*Element, type=MASS, elset=M_820025
820025, 200025
*Mass, elset=M_820025
7.641549044403e+2
*Element, type=MASS, elset=M_820026
820026, 200026
*Mass, elset=M_820026
7.326504308503e+2
*Element, type=MASS, elset=M_820027
820027, 200027
*Mass, elset=M_820027
6.956915224561e+2
*Element, type=MASS, elset=M_820028
820028, 200028
*Mass, elset=M_820028
6.646625343842e+2
*Element, type=MASS, elset=M_820029
820029, 200029
*Mass, elset=M_820029
6.322890848079e+2
*Element, type=MASS, elset=M_820030
820030, 200030
*Mass, elset=M_820030
6.136209184687e+2
*Element, type=MASS, elset=M_820031
820031, 200031
*Mass, elset=M_820031
5.795662424804e+2
*Element, type=MASS, elset=M_820032
820032, 200032
*Mass, elset=M_820032
5.353160494042e+2
*Element, type=MASS, elset=M_820033
820033, 200033
*Mass, elset=M_820033
5.037234140742e+2
*Element, type=MASS, elset=M_820034
820034, 200034
*Mass, elset=M_820034
4.718188460761e+2
*Element, type=MASS, elset=M_820035
820035, 200035
*Mass, elset=M_820035
4.428560395868e+2
*Element, type=MASS, elset=M_820036
820036, 200036
*Mass, elset=M_820036
4.045406580807e+2
*Element, type=MASS, elset=M_820037
820037, 200037
*Mass, elset=M_820037
3.754366907270e+2
*Element, type=MASS, elset=M_820038
820038, 200038
*Mass, elset=M_820038
3.516140335442e+2
*Element, type=MASS, elset=M_820039
820039, 200039
*Mass, elset=M_820039
3.229951653573e+2
*Element, type=MASS, elset=M_820040
820040, 200040
*Mass, elset=M_820040
3.008829906470e+2
*Element, type=MASS, elset=M_820041
820041, 200041
*Mass, elset=M_820041
2.718204362970e+2
*Element, type=MASS, elset=M_820042
820042, 200042
*Mass, elset=M_820042
2.413880597725e+2
*Element, type=MASS, elset=M_820043
820043, 200043
*Mass, elset=M_820043
2.120572793365e+2
*Element, type=MASS, elset=M_820044
820044, 200044
*Mass, elset=M_820044
1.859633076759e+2
*Element, type=MASS, elset=M_820045
820045, 200045
*Mass, elset=M_820045
1.668777646891e+2
*Element, type=MASS, elset=M_820046
820046, 200046
*Mass, elset=M_820046
1.439831502568e+2
*Element, type=MASS, elset=M_820047
820047, 200047
*Mass, elset=M_820047
1.168076643146e+2
*Element, type=MASS, elset=M_820048
820048, 200048
*Mass, elset=M_820048
9.392903536346e+1
*Element, type=MASS, elset=M_820049
820049, 200049
*Mass, elset=M_820049
7.066289531723e+1
*Element, type=MASS, elset=M_820050
820050, 200050
*Mass, elset=M_820050
4.044404918621e+1
*Element, type=MASS, elset=M_820051
820051, 200051
*Mass, elset=M_820051
1.209906643974e+1
*Element, type=MASS, elset=M_821001
821001, 201001
*Mass, elset=M_821001
1.199552608362e+3
*Element, type=MASS, elset=M_821002
821002, 201002
*Mass, elset=M_821002
2.232807904162e+3
*Element, type=MASS, elset=M_821003
821003, 201003
*Mass, elset=M_821003
2.065584802354e+3
*Element, type=MASS, elset=M_821004
821004, 201004
*Mass, elset=M_821004
2.016026809194e+3
*Element, type=MASS, elset=M_821005
821005, 201005
*Mass, elset=M_821005
1.921884371741e+3
*Element, type=MASS, elset=M_821006
821006, 201006
*Mass, elset=M_821006
1.809529505252e+3
*Element, type=MASS, elset=M_821007
821007, 201007
*Mass, elset=M_821007
1.685397003703e+3
*Element, type=MASS, elset=M_821008
821008, 201008
*Mass, elset=M_821008
1.577193440530e+3
*Element, type=MASS, elset=M_821009
821009, 201009
*Mass, elset=M_821009
1.382585288471e+3
*Element, type=MASS, elset=M_821010
821010, 201010
*Mass, elset=M_821010
1.500042403153e+3
*Element, type=MASS, elset=M_821011
821011, 201011
*Mass, elset=M_821011
1.520948123249e+3
*Element, type=MASS, elset=M_821012
821012, 201012
*Mass, elset=M_821012
1.272177394192e+3
*Element, type=MASS, elset=M_821013
821013, 201013
*Mass, elset=M_821013
1.196485338757e+3
*Element, type=MASS, elset=M_821014
821014, 201014
*Mass, elset=M_821014
1.133299937287e+3
*Element, type=MASS, elset=M_821015
821015, 201015
*Mass, elset=M_821015
1.080268932617e+3
*Element, type=MASS, elset=M_821016
821016, 201016
*Mass, elset=M_821016
1.031024240022e+3
*Element, type=MASS, elset=M_821017
821017, 201017
*Mass, elset=M_821017
1.003030202763e+3
*Element, type=MASS, elset=M_821018
821018, 201018
*Mass, elset=M_821018
9.773375433187e+2
*Element, type=MASS, elset=M_821019
821019, 201019
*Mass, elset=M_821019
9.471574973757e+2
*Element, type=MASS, elset=M_821020
821020, 201020
*Mass, elset=M_821020
9.148644492509e+2
*Element, type=MASS, elset=M_821021
821021, 201021
*Mass, elset=M_821021
8.827377480929e+2
*Element, type=MASS, elset=M_821022
821022, 201022
*Mass, elset=M_821022
8.543231952591e+2
*Element, type=MASS, elset=M_821023
821023, 201023
*Mass, elset=M_821023
8.047574066076e+2
*Element, type=MASS, elset=M_821024
821024, 201024
*Mass, elset=M_821024
7.754785279639e+2
*Element, type=MASS, elset=M_821025
821025, 201025
*Mass, elset=M_821025
7.641549044403e+2
*Element, type=MASS, elset=M_821026
821026, 201026
*Mass, elset=M_821026
7.326504308503e+2
*Element, type=MASS, elset=M_821027
821027, 201027
*Mass, elset=M_821027
6.956915224561e+2
*Element, type=MASS, elset=M_821028
821028, 201028
*Mass, elset=M_821028
6.646625343842e+2
*Element, type=MASS, elset=M_821029
821029, 201029
*Mass, elset=M_821029
6.322890848079e+2
*Element, type=MASS, elset=M_821030
821030, 201030
*Mass, elset=M_821030
6.136209184687e+2
*Element, type=MASS, elset=M_821031
821031, 201031
*Mass, elset=M_821031
5.795662424804e+2
*Element, type=MASS, elset=M_821032
821032, 201032
*Mass, elset=M_821032
5.353160494042e+2
*Element, type=MASS, elset=M_821033
821033, 201033
*Mass, elset=M_821033
5.037234140742e+2
*Element, type=MASS, elset=M_821034
821034, 201034
*Mass, elset=M_821034
4.718188460761e+2
*Element, type=MASS, elset=M_821035
821035, 201035
*Mass, elset=M_821035
4.428560395868e+2
*Element, type=MASS, elset=M_821036
821036, 201036
*Mass, elset=M_821036
4.045406580807e+2
*Element, type=MASS, elset=M_821037
821037, 201037
*Mass, elset=M_821037
3.754366907270e+2
*Element, type=MASS, elset=M_821038
821038, 201038
*Mass, elset=M_821038
3.516140335442e+2
*Element, type=MASS, elset=M_821039
821039, 201039
*Mass, elset=M_821039
3.229951653573e+2
*Element, type=MASS, elset=M_821040
821040, 201040
*Mass, elset=M_821040
3.008829906470e+2
*Element, type=MASS, elset=M_821041
821041, 201041
*Mass, elset=M_821041
2.718204362970e+2
*Element, type=MASS, elset=M_821042
821042, 201042
*Mass, elset=M_821042
2.413880597725e+2
*Element, type=MASS, elset=M_821043
821043, 201043
*Mass, elset=M_821043
2.120572793365e+2
*Element, type=MASS, elset=M_821044
821044, 201044
*Mass, elset=M_821044
1.859633076759e+2
*Element, type=MASS, elset=M_821045
821045, 201045
*Mass, elset=M_821045
1.668777646891e+2
*Element, type=MASS, elset=M_821046
821046, 201046
*Mass, elset=M_821046
1.439831502568e+2
*Element, type=MASS, elset=M_821047
821047, 201047
*Mass, elset=M_821047
1.168076643146e+2
*Element, type=MASS, elset=M_821048
821048, 201048
*Mass, elset=M_821048
9.392903536346e+1
*Element, type=MASS, elset=M_821049
821049, 201049
*Mass, elset=M_821049
7.066289531723e+1
*Element, type=MASS, elset=M_821050
821050, 201050
*Mass, elset=M_821050
4.044404918621e+1
*Element, type=MASS, elset=M_821051
821051, 201051
*Mass, elset=M_821051
1.209906643974e+1
*Element, type=MASS, elset=M_822001
822001, 202001
*Mass, elset=M_822001
1.199552608362e+3
*Element, type=MASS, elset=M_822002
822002, 202002
*Mass, elset=M_822002
2.232807904162e+3
*Element, type=MASS, elset=M_822003
822003, 202003
*Mass, elset=M_822003
2.065584802354e+3
*Element, type=MASS, elset=M_822004
822004, 202004
*Mass, elset=M_822004
2.016026809194e+3
*Element, type=MASS, elset=M_822005
822005, 202005
*Mass, elset=M_822005
1.921884371741e+3
*Element, type=MASS, elset=M_822006
822006, 202006
*Mass, elset=M_822006
1.809529505252e+3
*Element, type=MASS, elset=M_822007
822007, 202007
*Mass, elset=M_822007
1.685397003703e+3
*Element, type=MASS, elset=M_822008
822008, 202008
*Mass, elset=M_822008
1.577193440530e+3
*Element, type=MASS, elset=M_822009
822009, 202009
*Mass, elset=M_822009
1.382585288471e+3
*Element, type=MASS, elset=M_822010
822010, 202010
*Mass, elset=M_822010
1.500042403153e+3
*Element, type=MASS, elset=M_822011
822011, 202011
*Mass, elset=M_822011
1.520948123249e+3
*Element, type=MASS, elset=M_822012
822012, 202012
*Mass, elset=M_822012
1.272177394192e+3
*Element, type=MASS, elset=M_822013
822013, 202013
*Mass, elset=M_822013
1.196485338757e+3
*Element, type=MASS, elset=M_822014
822014, 202014
*Mass, elset=M_822014
1.133299937287e+3
*Element, type=MASS, elset=M_822015
822015, 202015
*Mass, elset=M_822015
1.080268932617e+3
*Element, type=MASS, elset=M_822016
822016, 202016
*Mass, elset=M_822016
1.031024240022e+3
*Element, type=MASS, elset=M_822017
822017, 202017
*Mass, elset=M_822017
1.003030202763e+3
*Element, type=MASS, elset=M_822018
822018, 202018
*Mass, elset=M_822018
9.773375433187e+2
*Element, type=MASS, elset=M_822019
822019, 202019
*Mass, elset=M_822019
9.471574973757e+2
*Element, type=MASS, elset=M_822020
822020, 202020
*Mass, elset=M_822020
9.148644492509e+2
*Element, type=MASS, elset=M_822021
822021, 202021
*Mass, elset=M_822021
8.827377480929e+2
*Element, type=MASS, elset=M_822022
822022, 202022
*Mass, elset=M_822022
8.543231952591e+2
*Element, type=MASS, elset=M_822023
822023, 202023
*Mass, elset=M_822023
8.047574066076e+2
*Element, type=MASS, elset=M_822024
822024, 202024
*Mass, elset=M_822024
7.754785279639e+2
*Element, type=MASS, elset=M_822025
822025, 202025
*Mass, elset=M_822025
7.641549044403e+2
*Element, type=MASS, elset=M_822026
822026, 202026
*Mass, elset=M_822026
7.326504308503e+2
*Element, type=MASS, elset=M_822027
822027, 202027
*Mass, elset=M_822027
6.956915224561e+2
*Element, type=MASS, elset=M_822028
822028, 202028
*Mass, elset=M_822028
6.646625343842e+2
*Element, type=MASS, elset=M_822029
822029, 202029
*Mass, elset=M_822029
6.322890848079e+2
*Element, type=MASS, elset=M_822030
822030, 202030
*Mass, elset=M_822030
6.136209184687e+2
*Element, type=MASS, elset=M_822031
822031, 202031
*Mass, elset=M_822031
5.795662424804e+2
*Element, type=MASS, elset=M_822032
822032, 202032
*Mass, elset=M_822032
5.353160494042e+2
*Element, type=MASS, elset=M_822033
822033, 202033
*Mass, elset=M_822033
5.037234140742e+2
*Element, type=MASS, elset=M_822034
822034, 202034
*Mass, elset=M_822034
4.718188460761e+2
*Element, type=MASS, elset=M_822035
822035, 202035
*Mass, elset=M_822035
4.428560395868e+2
*Element, type=MASS, elset=M_822036
822036, 202036
*Mass, elset=M_822036
4.045406580807e+2
*Element, type=MASS, elset=M_822037
822037, 202037
*Mass, elset=M_822037
3.754366907270e+2
*Element, type=MASS, elset=M_822038
822038, 202038
*Mass, elset=M_822038
3.516140335442e+2
*Element, type=MASS, elset=M_822039
822039, 202039
*Mass, elset=M_822039
3.229951653573e+2
*Element, type=MASS, elset=M_822040
822040, 202040
*Mass, elset=M_822040
3.008829906470e+2
*Element, type=MASS, elset=M_822041
822041, 202041
*Mass, elset=M_822041
2.718204362970e+2
*Element, type=MASS, elset=M_822042
822042, 202042
*Mass, elset=M_822042
2.413880597725e+2
*Element, type=MASS, elset=M_822043
822043, 202043
*Mass, elset=M_822043
2.120572793365e+2
*Element, type=MASS, elset=M_822044
822044, 202044
*Mass, elset=M_822044
1.859633076759e+2
*Element, type=MASS, elset=M_822045
822045, 202045
*Mass, elset=M_822045
1.668777646891e+2
*Element, type=MASS, elset=M_822046
822046, 202046
*Mass, elset=M_822046
1.439831502568e+2
*Element, type=MASS, elset=M_822047
822047, 202047
*Mass, elset=M_822047
1.168076643146e+2
*Element, type=MASS, elset=M_822048
822048, 202048
*Mass, elset=M_822048
9.392903536346e+1
*Element, type=MASS, elset=M_822049
822049, 202049
*Mass, elset=M_822049
7.066289531723e+1
*Element, type=MASS, elset=M_822050
822050, 202050
*Mass, elset=M_822050
4.044404918621e+1
*Element, type=MASS, elset=M_822051
822051, 202051
*Mass, elset=M_822051
1.209906643974e+1
*Element, type=ROTARYI, elset=J_810001
810001, 900001
*Rotary Inertia, elset=J_810001
0.000000000000e+0, 2.473836374768e+3, 3.231970636252e+5, 0.000000000000e+0, 0.000000000000e+0, -2.827607915207e+4
*Element, type=ROTARYI, elset=J_810002
810002, 900002
*Rotary Inertia, elset=J_810002
0.000000000000e+0, 7.326346450000e+6, 0.000000000000e+0, 0.000000000000e+0, 0.000000000000e+0, 0.000000000000e+0
*Element, type=ROTARYI, elset=J_830001
830001, 200001
*Rotary Inertia, elset=J_830001
3.737431959393e+3, 7.722120746905e+3, 3.998910844478e+3, 0.000000000000e+0, 0.000000000000e+0, 1.628693291949e+2
*Element, type=ROTARYI, elset=J_830002
830002, 200002
*Rotary Inertia, elset=J_830002
6.949447269367e+3, 1.436284808039e+4, 7.439845555982e+3, 0.000000000000e+0, 0.000000000000e+0, 3.028421192237e+2
*Element, type=ROTARYI, elset=J_830003
830003, 200003
*Rotary Inertia, elset=J_830003
6.388698616847e+3, 1.318904849347e+4, 6.824660803660e+3, 0.000000000000e+0, 0.000000000000e+0, 2.784058865711e+2
*Element, type=ROTARYI, elset=J_830004
830004, 200004
*Rotary Inertia, elset=J_830004
6.143014115306e+3, 1.257954392450e+4, 6.459905832525e+3, 0.000000000000e+0, 0.000000000000e+0, 2.676994789644e+2
*Element, type=ROTARYI, elset=J_830005
830005, 200005
*Rotary Inertia, elset=J_830005
5.676910313472e+3, 1.145240979855e+4, 5.797101842724e+3, -2.214355887894e+0, 5.071708809711e+1, 2.473876674412e+2
*Element, type=ROTARYI, elset=J_830006
830006, 200006
*Rotary Inertia, elset=J_830006
5.066799394770e+3, 1.006643797073e+4, 5.018919277365e+3, -1.165741423696e+1, 2.669986825843e+2, 2.208003323023e+2
*Element, type=ROTARYI, elset=J_830007
830007, 200007
*Rotary Inertia, elset=J_830007
4.431083071622e+3, 8.555726185912e+3, 4.141504723158e+3, -1.674321112150e+1, 3.834825820548e+2, 1.930971681419e+2
*Element, type=ROTARYI, elset=J_830008
830008, 200008
*Rotary Inertia, elset=J_830008
3.988002790365e+3, 7.238053221637e+3, 3.265225985900e+3, -1.954605904831e+1, 4.476783538383e+2, 1.737886726370e+2
*Element, type=ROTARYI, elset=J_830009
830009, 200009
*Rotary Inertia, elset=J_830009
3.434426790018e+3, 5.783216006104e+3, 2.361858246904e+3, -1.845285285368e+1, 4.226398154605e+2, 1.496650088982e+2
*Element, type=ROTARYI, elset=J_830010
830010, 200010
*Rotary Inertia, elset=J_830010
3.718234540027e+3, 5.805032750347e+3, 2.100947215310e+3, -1.900151240611e+1, 4.352061852151e+2, 1.620327465230e+2
*Element, type=ROTARYI, elset=J_830011
830011, 200011
*Rotary Inertia, elset=J_830011
3.770756021129e+3, 5.569107633635e+3, 1.812700477589e+3, -1.770632751562e+1, 4.055415741415e+2, 1.643215208708e+2
*Element, type=ROTARYI, elset=J_830012
830012, 200012
*Rotary Inertia, elset=J_830012
3.171559287315e+3, 4.476735614224e+3, 1.317245067518e+3, -1.319384062242e+1, 3.021886322992e+2, 1.382098026771e+2
*Element, type=ROTARYI, elset=J_830013
830013, 200013
*Rotary Inertia, elset=J_830013
2.955032432410e+3, 4.057062335723e+3, 1.113274693867e+3, -1.110116821409e+1, 2.542585540891e+2, 1.287740232450e+2
*Element, type=ROTARYI, elset=J_830014
830014, 200014
*Rotary Inertia, elset=J_830014
2.745551686849e+3, 3.690002703157e+3, 9.548986693810e+2, -9.507087004432e+0, 2.177480917980e+2, 1.196452982597e+2
*Element, type=ROTARYI, elset=J_830015
830015, 200015
*Rotary Inertia, elset=J_830015
2.571040474372e+3, 3.385303788504e+3, 8.240468993553e+2, -8.134898608386e+0, 1.863198104867e+2, 1.120404710891e+2
*Element, type=ROTARYI, elset=J_830016
830016, 200016
*Rotary Inertia, elset=J_830016
2.459261248092e+3, 3.152889430792e+3, 7.029864142198e+2, -6.816592951383e+0, 1.561256467976e+2, 1.071693703440e+2
*Element, type=ROTARYI, elset=J_830017
830017, 200017
*Rotary Inertia, elset=J_830017
2.324320196931e+3, 2.929899717226e+3, 6.144242603765e+2, -5.986997636269e+0, 1.371247902001e+2, 1.012889265734e+2
*Element, type=ROTARYI, elset=J_830018
830018, 200018
*Rotary Inertia, elset=J_830018
2.166921777672e+3, 2.700599311742e+3, 5.419233256455e+2, -5.345499109752e+0, 1.224320583491e+2, 9.442983850455e+1
*Element, type=ROTARYI, elset=J_830019
830019, 200019
*Rotary Inertia, elset=J_830019
1.987648791401e+3, 2.458536752899e+3, 4.784515652361e+2, -4.758519847770e+0, 1.089880229509e+2, 8.661750336804e+1
*Element, type=ROTARYI, elset=J_830020
830020, 200020
*Rotary Inertia, elset=J_830020
1.807979842539e+3, 2.223662072035e+3, 4.225621386400e+2, -4.166739881922e+0, 9.543403335684e+1, 7.878791302466e+1
*Element, type=ROTARYI, elset=J_830021
830021, 200021
*Rotary Inertia, elset=J_830021
1.650193842233e+3, 2.016662210568e+3, 3.727478541121e+2, -3.581781760296e+0, 8.203628968347e+1, 7.191193499872e+1
*Element, type=ROTARYI, elset=J_830022
830022, 200022
*Rotary Inertia, elset=J_830022
1.512086827454e+3, 1.834516373959e+3, 3.281834933951e+2, -3.054319056363e+0, 6.995540757704e+1, 6.589352527284e+1
*Element, type=ROTARYI, elset=J_830023
830023, 200023
*Rotary Inertia, elset=J_830023
1.342126923444e+3, 1.618614689343e+3, 2.815949640416e+2, -2.526770871353e+0, 5.787256763206e+1, 5.848703443720e+1
*Element, type=ROTARYI, elset=J_830024
830024, 200024
*Rotary Inertia, elset=J_830024
1.217455786805e+3, 1.460081360225e+3, 2.472583602487e+2, -2.143684425664e+0, 4.909844549524e+1, 5.305413168071e+1
*Element, type=ROTARYI, elset=J_830025
830025, 200025
*Rotary Inertia, elset=J_830025
1.124441273980e+3, 1.342273514895e+3, 2.221110794413e+2, -1.833019657058e+0, 4.198305247091e+1, 4.900075720491e+1
*Element, type=ROTARYI, elset=J_830026
830026, 200026
*Rotary Inertia, elset=J_830026
1.010318729655e+3, 1.200307019413e+3, 1.938328575478e+2, -1.518555709918e+0, 3.478064395219e+1, 4.402753964746e+1
*Element, type=ROTARYI, elset=J_830027
830027, 200027
*Rotary Inertia, elset=J_830027
8.837770921006e+2, 1.048860943089e+3, 1.684468896438e+2, -1.232875259180e+0, 2.823748588671e+1, 3.851312444269e+1
*Element, type=ROTARYI, elset=J_830028
830028, 200028
*Rotary Inertia, elset=J_830028
7.872756033110e+2, 9.310131579265e+2, 1.467333759711e+2, -1.007174299108e+0, 2.306808401318e+1, 3.430779497684e+1
*Element, type=ROTARYI, elset=J_830029
830029, 200029
*Rotary Inertia, elset=J_830029
6.958375283491e+2, 8.209163888191e+2, 1.277267323444e+2, -8.108864815467e-1, 1.857235385974e+1, 3.032311830748e+1
*Element, type=ROTARYI, elset=J_830030
830030, 200030
*Rotary Inertia, elset=J_830030
6.232663197106e+2, 7.343026439144e+2, 1.134080407195e+2, -6.645659696117e-1, 1.522106315945e+1, 2.716061951199e+1
*Element, type=ROTARYI, elset=J_830031
830031, 200031
*Rotary Inertia, elset=J_830031
5.369677612680e+2, 6.332784723262e+2, 9.835403550484e+1, -5.255602976351e-1, 1.203730983860e+1, 2.339991203243e+1
*Element, type=ROTARYI, elset=J_830032
830032, 200032
*Rotary Inertia, elset=J_830032
4.586978508490e+2, 5.401994581476e+2, 8.324709110578e+1, -4.089862771666e-1, 9.367325804749e+0, 1.998907594375e+1
*Element, type=ROTARYI, elset=J_830033
830033, 200033
*Rotary Inertia, elset=J_830033
3.964422516646e+2, 4.671595530601e+2, 7.222588385222e+1, -3.217766478170e-1, 7.369896900560e+0, 1.727610945019e+1
*Element, type=ROTARYI, elset=J_830034
830034, 200034
*Rotary Inertia, elset=J_830034
3.401674495628e+2, 4.013210461392e+2, 6.244803642144e+1, -2.531436810079e-1, 5.797943519872e+0, 1.482377336261e+1
*Element, type=ROTARYI, elset=J_830035
830035, 200035
*Rotary Inertia, elset=J_830035
2.945781529323e+2, 3.474414261704e+2, 5.398423204555e+1, -2.018469600864e-1, 4.623055450483e+0, 1.283708885803e+1
*Element, type=ROTARYI, elset=J_830036
830036, 200036
*Rotary Inertia, elset=J_830036
2.464907647416e+2, 2.912870354470e+2, 4.573424248288e+1, -1.539648691156e-1, 3.526375264918e+0, 1.074154284075e+1
*Element, type=ROTARYI, elset=J_830037
830037, 200037
*Rotary Inertia, elset=J_830037
2.113807347530e+2, 2.497370496135e+2, 3.916068237390e+1, -1.219097622850e-1, 2.792192613441e+0, 9.211522469970e+0
*Element, type=ROTARYI, elset=J_830038
830038, 200038
*Rotary Inertia, elset=J_830038
1.818644640073e+2, 2.149530976764e+2, 3.378068286101e+1, -9.773004162456e-2, 2.238385960407e+0, 7.925266219981e+0
*Element, type=ROTARYI, elset=J_830039
830039, 200039
*Rotary Inertia, elset=J_830039
1.546202655692e+2, 1.824376197083e+2, 2.840573093067e+1, -7.631783873867e-2, 1.747965885634e+0, 6.738022044763e+0
*Element, type=ROTARYI, elset=J_830040
830040, 200040
*Rotary Inertia, elset=J_830040
1.332233699166e+2, 1.568464358684e+2, 2.413002109561e+1, -6.154825641218e-2, 1.409686834779e+0, 5.805590878212e+0
*Element, type=ROTARYI, elset=J_830041
830041, 200041
*Rotary Inertia, elset=J_830041
1.102025541918e+2, 1.297189560346e+2, 1.993575583264e+1, -4.706114907714e-2, 1.077877524903e+0, 4.802392731636e+0
*Element, type=ROTARYI, elset=J_830042
830042, 200042
*Rotary Inertia, elset=J_830042
9.011733215353e+1, 1.058875429140e+2, 1.611313441644e+1, -3.653718284064e-2, 8.368390695821e-1, 3.927121509139e+0
*Element, type=ROTARYI, elset=J_830043
830043, 200043
*Rotary Inertia, elset=J_830043
7.291190592905e+1, 8.555305113809e+1, 1.291859702381e+1, -2.775409685334e-2, 6.356733273374e-1, 3.177345658197e+0
*Element, type=ROTARYI, elset=J_830044
830044, 200044
*Rotary Inertia, elset=J_830044
6.003338357466e+1, 7.002824128618e+1, 1.022330286060e+1, -2.182859420612e-2, 4.999570039488e-1, 2.616127067552e+0
*Element, type=ROTARYI, elset=J_830045
830045, 200045
*Rotary Inertia, elset=J_830045
4.995674572440e+1, 5.797832191120e+1, 8.211676686636e+0, -1.753316283219e-2, 4.015754508309e-1, 2.177008639433e+0
*Element, type=ROTARYI, elset=J_830046
830046, 200046
*Rotary Inertia, elset=J_830046
4.022670319403e+1, 4.633804630417e+1, 6.264417860570e+0, -1.456900592729e-2, 3.336850960324e-1, 1.752994097583e+0
*Element, type=ROTARYI, elset=J_830047
830047, 200047
*Rotary Inertia, elset=J_830047
3.002230122650e+1, 3.428962708135e+1, 4.381569775005e+0, -1.092538453615e-2, 2.502324459424e-1, 1.308307981195e+0
*Element, type=ROTARYI, elset=J_830048
830048, 200048
*Rotary Inertia, elset=J_830048
2.173980979081e+1, 2.454589485989e+1, 2.888811608764e+0, -8.540266012436e-3, 1.956042504701e-1, 9.473746347553e-1
*Element, type=ROTARYI, elset=J_830049
830049, 200049
*Rotary Inertia, elset=J_830049
1.406244303738e+1, 1.563892954788e+1, 1.629998351832e+0, -6.368288502667e-3, 1.458577868098e-1, 6.128113338846e-1
*Element, type=ROTARYI, elset=J_830050
830050, 200050
*Rotary Inertia, elset=J_830050
6.117237906489e+0, 6.689900470559e+0, 5.959405011487e-1, -3.204725579369e-3, 7.340028331693e-2, 2.665762066521e-1
*Element, type=ROTARYI, elset=J_830051
830051, 200051
*Rotary Inertia, elset=J_830051
1.247630497595e+0, 1.347018192035e+0, 1.041353051534e-1, -7.475103990040e-4, 1.712080292380e-2, 5.436908134626e-2
*Element, type=ROTARYI, elset=J_831001
831001, 201001
*Rotary Inertia, elset=J_831001
6.725948550027e+3, 4.713882354038e+3, 4.018632646711e+3, -1.706561882478e+3, -2.908925790786e+2, 1.439865664280e+2
*Element, type=ROTARYI, elset=J_831002
831002, 201002
*Rotary Inertia, elset=J_831002
1.250949787764e+4, 8.766150329990e+3, 7.476492698115e+3, -3.175023081479e+3, -5.410493194988e+2, 2.674576917179e+2
*Element, type=ROTARYI, elset=J_831003
831003, 201003
*Rotary Inertia, elset=J_831003
1.148896102431e+4, 8.055011296819e+3, 6.858435592844e+3, -2.912418815549e+3, -4.968311880632e+2, 2.468446636005e+2
*Element, type=ROTARYI, elset=J_831004
831004, 201004
*Rotary Inertia, elset=J_831004
1.097041147220e+4, 7.719087784054e+3, 6.492964616075e+3, -2.756287697377e+3, -4.738640466151e+2, 2.440138855574e+2
*Element, type=ROTARYI, elset=J_831005
831005, 201005
*Rotary Inertia, elset=J_831005
1.000661723883e+4, 7.098781260291e+3, 5.821023455625e+3, -2.471568318542e+3, -4.567520004486e+2, 1.936537396047e+2
*Element, type=ROTARYI, elset=J_831006
831006, 201006
*Rotary Inertia, elset=J_831006
8.806432709868e+3, 6.337851267757e+3, 5.007872665239e+3, -2.134174368814e+3, -5.126744716422e+2, -5.435878622850e+0
*Element, type=ROTARYI, elset=J_831007
831007, 201007
*Rotary Inertia, elset=J_831007
7.510065361168e+3, 5.507505311332e+3, 4.110743308193e+3, -1.756280099492e+3, -5.139941434763e+2, -1.160475080623e+2
*Element, type=ROTARYI, elset=J_831008
831008, 201008
*Rotary Inertia, elset=J_831008
6.408613230139e+3, 4.857886450355e+3, 3.224782317408e+3, -1.379067427316e+3, -4.964272839305e+2, -1.614667553441e+2
*Element, type=ROTARYI, elset=J_831009
831009, 201009
*Rotary Inertia, elset=J_831009
5.180038062739e+3, 4.075439181339e+3, 2.324023798948e+3, -9.926623564517e+2, -4.290826213859e+2, -1.412654065931e+2
*Element, type=ROTARYI, elset=J_831010
831010, 201010
*Rotary Inertia, elset=J_831010
5.266877405313e+3, 4.291396461615e+3, 2.065940638756e+3, -8.784407819731e+2, -4.361484025025e+2, -1.042437619383e+2
*Element, type=ROTARYI, elset=J_831011
831011, 201011
*Rotary Inertia, elset=J_831011
5.104185601072e+3, 4.263992606354e+3, 1.784385924926e+3, -7.544898653171e+2, -4.124048480961e+2, -5.458827280459e+1
*Element, type=ROTARYI, elset=J_831012
831012, 201012
*Rotary Inertia, elset=J_831012
4.139015331344e+3, 3.526072919874e+3, 1.300451717838e+3, -5.459784611459e+2, -3.195888065207e+2, 6.492657940446e-1
*Element, type=ROTARYI, elset=J_831013
831013, 201013
*Rotary Inertia, elset=J_831013
3.771940966210e+3, 3.251053428885e+3, 1.102375066905e+3, -4.601067529215e+2, -2.798165849009e+2, 3.122404909269e+1
*Element, type=ROTARYI, elset=J_831014
831014, 201014
*Rotary Inertia, elset=J_831014
3.445656570218e+3, 2.996797391865e+3, 9.479990973046e+2, -3.936188114082e+2, -2.477387743338e+2, 4.989026029255e+1
*Element, type=ROTARYI, elset=J_831015
831015, 201015
*Rotary Inertia, elset=J_831015
3.174692931118e+3, 2.785072783588e+3, 8.206254475243e+2, -3.387204983610e+2, -2.205504973052e+2, 6.623008018596e+1
*Element, type=ROTARYI, elset=J_831016
831016, 201016
*Rotary Inertia, elset=J_831016
2.973579042453e+3, 2.638042566729e+3, 7.035154839210e+2, -2.877095490445e+2, -1.966982563170e+2, 8.767138549366e+1
*Element, type=ROTARYI, elset=J_831017
831017, 201017
*Rotary Inertia, elset=J_831017
2.773319945107e+3, 2.478549008172e+3, 6.167752212547e+2, -2.505870896859e+2, -1.788016769216e+2, 9.498069431501e+1
*Element, type=ROTARYI, elset=J_831018
831018, 201018
*Rotary Inertia, elset=J_831018
2.562550590200e+3, 2.301791180467e+3, 5.451026443929e+2, -2.204095594001e+2, -1.628242223771e+2, 9.515413308493e+1
*Element, type=ROTARYI, elset=J_831019
831019, 201019
*Rotary Inertia, elset=J_831019
2.336693763452e+3, 2.105971737903e+3, 4.819716081811e+2, -1.942074956318e+2, -1.469926196295e+2, 9.131191986845e+1
*Element, type=ROTARYI, elset=J_831020
831020, 201020
*Rotary Inertia, elset=J_831020
2.116133012072e+3, 1.911679331963e+3, 4.263917091789e+2, -1.712805376907e+2, -1.313773638831e+2, 8.702653231700e+1
*Element, type=ROTARYI, elset=J_831021
831021, 201021
*Rotary Inertia, elset=J_831021
1.921943204489e+3, 1.740582948829e+3, 3.770777535957e+2, -1.508628741533e+2, -1.168890714424e+2, 8.458052096185e+1
*Element, type=ROTARYI, elset=J_831022
831022, 201022
*Rotary Inertia, elset=J_831022
1.751263869438e+3, 1.590512869794e+3, 3.330099555752e+2, -1.325840650567e+2, -1.039943632351e+2, 8.280311261326e+1
*Element, type=ROTARYI, elset=J_831023
831023, 201023
*Rotary Inertia, elset=J_831023
1.547304500104e+3, 1.408464509242e+3, 2.865675674826e+2, -1.135892000636e+2, -8.982932021395e+1, 7.771271394465e+1
*Element, type=ROTARYI, elset=J_831024
831024, 201024
*Rotary Inertia, elset=J_831024
1.397568481700e+3, 1.274901301204e+3, 2.523257243747e+2, -9.958385059728e+1, -7.947718771740e+1, 7.391367224122e+1
*Element, type=ROTARYI, elset=J_831025
831025, 201025
*Rotary Inertia, elset=J_831025
1.286228013078e+3, 1.175265957719e+3, 2.273318975200e+2, -8.935015315731e+1, -7.148683473124e+1, 7.153223506792e+1
*Element, type=ROTARYI, elset=J_831026
831026, 201026
*Rotary Inertia, elset=J_831026
1.151494839151e+3, 1.053965791118e+3, 1.989979763462e+2, -7.787185423605e+1, -6.254426889779e+1, 6.714472941381e+1
*Element, type=ROTARYI, elset=J_831027
831027, 201027
*Rotary Inertia, elset=J_831027
1.006522279048e+3, 9.212630014699e+2, 1.732996443158e+2, -6.768801530863e+1, -5.357535674644e+1, 6.066505760890e+1
*Element, type=ROTARYI, elset=J_831028
831028, 201028
*Rotary Inertia, elset=J_831028
8.942065307436e+2, 8.194273264990e+2, 1.513882799660e+2, -5.891023598363e+1, -4.655699279046e+1, 5.602944541004e+1
*Element, type=ROTARYI, elset=J_831029
831029, 201029
*Rotary Inertia, elset=J_831029
7.889444254090e+2, 7.234113918019e+2, 1.321248323018e+2, -5.126043283735e+1, -4.016725734464e+1, 5.119308364196e+1
*Element, type=ROTARYI, elset=J_831030
831030, 201030
*Rotary Inertia, elset=J_831030
7.059680318513e+2, 6.474435563694e+2, 1.175654161239e+2, -4.551483755169e+1, -3.523327076497e+1, 4.712053592689e+1
*Element, type=ROTARYI, elset=J_831031
831031, 201031
*Rotary Inertia, elset=J_831031
6.087456459927e+2, 5.577610087460e+2, 1.020936143604e+2, -3.951608166230e+1, -2.984118133775e+1, 4.146824200612e+1
*Element, type=ROTARYI, elset=J_831032
831032, 201032
*Rotary Inertia, elset=J_831032
5.194698638171e+2, 4.760911704030e+2, 8.658336588218e+1, -3.344368704868e+1, -2.500467017190e+1, 3.625159933123e+1
*Element, type=ROTARYI, elset=J_831033
831033, 201033
*Rotary Inertia, elset=J_831033
4.492015609599e+2, 4.114093752180e+2, 7.521675239910e+1, -2.904009243701e+1, -2.125840358223e+1, 3.193024713559e+1
*Element, type=ROTARYI, elset=J_831034
831034, 201034
*Rotary Inertia, elset=J_831034
3.858134181366e+2, 3.530325445252e+2, 6.509056946171e+1, -2.513406188413e+1, -1.799579333038e+1, 2.781357055872e+1
*Element, type=ROTARYI, elset=J_831035
831035, 201035
*Rotary Inertia, elset=J_831035
3.340508032658e+2, 3.056201416708e+2, 5.633286621176e+1, -2.173350840047e+1, -1.538150412107e+1, 2.443015039403e+1
*Element, type=ROTARYI, elset=J_831036
831036, 201036
*Rotary Inertia, elset=J_831036
2.799546302827e+2, 2.558098010286e+2, 4.774761136015e+1, -1.843579713943e+1, -1.272082879531e+1, 2.069607071431e+1
*Element, type=ROTARYI, elset=J_831037
831037, 201037
*Rotary Inertia, elset=J_831037
2.400423939473e+2, 2.193136621353e+2, 4.092241065782e+1, -1.578933795253e+1, -1.079070212940e+1, 1.794899492902e+1
*Element, type=ROTARYI, elset=J_831038
831038, 201038
*Rotary Inertia, elset=J_831038
2.065963025604e+2, 1.886814300053e+2, 3.532051197904e+1, -1.362622018561e+1, -9.205307172532e+0, 1.557619335163e+1
*Element, type=ROTARYI, elset=J_831039
831039, 201039
*Rotary Inertia, elset=J_831039
1.754171879864e+2, 1.603064710437e+2, 2.973995717808e+1, -1.145269312162e+1, -7.736890384060e+0, 1.339504763104e+1
*Element, type=ROTARYI, elset=J_831040
831040, 201040
*Rotary Inertia, elset=J_831040
1.508873670268e+2, 1.380164152160e+2, 2.529604463776e+1, -9.721188019206e+0, -6.605024074820e+0, 1.164573924419e+1
*Element, type=ROTARYI, elset=J_831041
831041, 201041
*Rotary Inertia, elset=J_831041
1.247990994233e+2, 1.141444930899e+2, 2.091367354581e+1, -8.032681063173e+0, -5.418646738086e+0, 9.709923562190e+0
*Element, type=ROTARYI, elset=J_831042
831042, 201042
*Rotary Inertia, elset=J_831042
1.019133480953e+2, 9.328407170903e+1, 1.692058967956e+1, -6.488032160999e+0, -4.401625300572e+0, 7.990419028204e+0
*Element, type=ROTARYI, elset=J_831043
831043, 201043
*Rotary Inertia, elset=J_831043
8.236872908290e+1, 7.543604768378e+1, 1.357877732427e+1, -5.199246871278e+0, -3.536098866832e+0, 6.507731784405e+0
*Element, type=ROTARYI, elset=J_831044
831044, 201044
*Rotary Inertia, elset=J_831044
6.751062274119e+1, 6.200155700570e+1, 1.077274797455e+1, -4.103054194825e+0, -2.884190955232e+0, 5.405098322417e+0
*Element, type=ROTARYI, elset=J_831045
831045, 201045
*Rotary Inertia, elset=J_831045
5.595774370008e+1, 5.151624829818e+1, 8.672752323981e+0, -3.287141666985e+0, -2.381688829975e+0, 4.529388872617e+0
*Element, type=ROTARYI, elset=J_831046
831046, 201046
*Rotary Inertia, elset=J_831046
4.479759339740e+1, 4.139545161196e+1, 6.636122349419e+0, -2.496620365500e+0, -1.909842298062e+0, 3.661084469956e+0
*Element, type=ROTARYI, elset=J_831047
831047, 201047
*Rotary Inertia, elset=J_831047
3.321333395709e+1, 3.081968677370e+1, 4.660477352069e+0, -1.736562252831e+0, -1.414879587627e+0, 2.750481857918e+0
*Element, type=ROTARYI, elset=J_831048
831048, 201048
*Rotary Inertia, elset=J_831048
2.383697750530e+1, 2.224730836942e+1, 3.090230384745e+0, -1.134669661722e+0, -1.021030933936e+0, 1.997938076843e+0
*Element, type=ROTARYI, elset=J_831049
831049, 201049
*Rotary Inertia, elset=J_831049
1.523929282063e+1, 1.433333354233e+1, 1.758744574125e+0, -6.306024527034e-1, -6.611154452854e-1, 1.291486936364e+0
*Element, type=ROTARYI, elset=J_831050
831050, 201050
*Rotary Inertia, elset=J_831050
6.543959455778e+0, 6.208022850736e+0, 6.510965716829e-1, -2.253032712366e-1, -2.882954337761e-1, 5.607151776915e-1
*Element, type=ROTARYI, elset=J_831051
831051, 201051
*Rotary Inertia, elset=J_831051
1.321523905430e+0, 1.262099140064e+0, 1.151609492892e-1, -3.839488478398e-2, -5.921708065927e-2, 1.136661987356e-1
*Element, type=ROTARYI, elset=J_832001
832001, 202001
*Rotary Inertia, elset=J_832001
6.725948550027e+3, 4.713882354038e+3, 4.018632646711e+3, 1.706561882478e+3, 2.908925790786e+2, 1.439865664280e+2
*Element, type=ROTARYI, elset=J_832002
832002, 202002
*Rotary Inertia, elset=J_832002
1.250949787764e+4, 8.766150329990e+3, 7.476492698115e+3, 3.175023081479e+3, 5.410493194988e+2, 2.674576917179e+2
*Element, type=ROTARYI, elset=J_832003
832003, 202003
*Rotary Inertia, elset=J_832003
1.148896102431e+4, 8.055011296819e+3, 6.858435592844e+3, 2.912418815549e+3, 4.968311880632e+2, 2.468446636005e+2
*Element, type=ROTARYI, elset=J_832004
832004, 202004
*Rotary Inertia, elset=J_832004
1.097041147220e+4, 7.719087784054e+3, 6.492964616075e+3, 2.756287697377e+3, 4.738640466151e+2, 2.440138855574e+2
*Element, type=ROTARYI, elset=J_832005
832005, 202005
*Rotary Inertia, elset=J_832005
1.001045261573e+4, 7.079720967296e+3, 5.836248371717e+3, 2.473782674430e+3, 4.060349123515e+2, 2.798307534402e+2
*Element, type=ROTARYI, elset=J_832006
832006, 202006
*Rotary Inertia, elset=J_832006
8.826623943611e+3, 6.237508891837e+3, 5.088023807417e+3, 2.145831783051e+3, 2.456757890579e+2, 4.482405848028e+2
*Element, type=ROTARYI, elset=J_832007
832007, 202007
*Rotary Inertia, elset=J_832007
7.539065453512e+3, 5.363386422673e+3, 4.225862104508e+3, 1.773023310614e+3, 1.305115614215e+2, 5.355550389165e+2
*Element, type=ROTARYI, elset=J_832008
832008, 202008
*Rotary Inertia, elset=J_832008
6.442467997499e+3, 4.689641763760e+3, 3.359172236643e+3, 1.398613486365e+3, 4.874893009221e+1, 5.992153961771e+2
*Element, type=ROTARYI, elset=J_832009
832009, 202009
*Rotary Inertia, elset=J_832009
5.211999341426e+3, 3.916604377993e+3, 2.450897323607e+3, 1.011115209305e+3, 6.442805925415e+0, 5.768719824197e+2
*Element, type=ROTARYI, elset=J_832010
832010, 202010
*Rotary Inertia, elset=J_832010
5.299788990221e+3, 4.127839015499e+3, 2.196586499964e+3, 8.974422943792e+2, 9.422172873537e-1, 6.352460402521e+2
*Element, type=ROTARYI, elset=J_832011
832011, 202011
*Rotary Inertia, elset=J_832011
5.134853859945e+3, 4.111583595605e+3, 1.906126676803e+3, 7.721961928328e+2, 6.863273954602e+0, 6.344962775302e+2
*Element, type=ROTARYI, elset=J_832012
832012, 202012
*Rotary Inertia, elset=J_832012
4.161867733649e+3, 3.412505597939e+3, 1.391166637468e+3, 5.591723017683e+2, 1.740017422148e+1, 5.141194771897e+2
*Element, type=ROTARYI, elset=J_832013
832013, 202013
*Rotary Inertia, elset=J_832013
3.791168753580e+3, 3.155498997048e+3, 1.178701711372e+3, 4.712079211356e+2, 2.555803081175e+1, 4.632528534987e+2
*Element, type=ROTARYI, elset=J_832014
832014, 202014
*Rotary Inertia, elset=J_832014
3.462123327942e+3, 2.914964175791e+3, 1.013365555654e+3, 4.031258984127e+2, 2.999068253572e+1, 4.198815398316e+2
*Element, type=ROTARYI, elset=J_832015
832015, 202015
*Rotary Inertia, elset=J_832015
3.188782988823e+3, 2.715050818369e+3, 8.765573550389e+2, 3.468553969693e+2, 3.423068681852e+1, 3.828193302511e+2
*Element, type=ROTARYI, elset=J_832016
832016, 202016
*Rotary Inertia, elset=J_832016
2.985385727780e+3, 2.579368051221e+3, 7.503833141024e+2, 2.945261419959e+2, 4.057260951938e+1, 3.529555831668e+2
*Element, type=ROTARYI, elset=J_832017
832017, 202017
*Rotary Inertia, elset=J_832017
2.783689729198e+3, 2.427015318518e+3, 6.579391268179e+2, 2.565740873222e+2, 4.167688672153e+1, 3.279791842844e+2
*Element, type=ROTARYI, elset=J_832018
832018, 202018
*Rotary Inertia, elset=J_832018
2.571809266250e+3, 2.255779254473e+3, 5.818558943372e+2, 2.257550585098e+2, 4.039216402797e+1, 3.031871567093e+2
*Element, type=ROTARYI, elset=J_832019
832019, 202019
*Rotary Inertia, elset=J_832019
2.344935761597e+3, 2.065012295467e+3, 5.146890524720e+2, 1.989660154796e+2, 3.800459667859e+1, 2.765012261584e+2
*Element, type=ROTARYI, elset=J_832020
832020, 202020
*Rotary Inertia, elset=J_832020
2.123350017250e+3, 1.875813695631e+3, 4.550403403337e+2, 1.754472775726e+2, 3.594333052623e+1, 2.491852902731e+2
*Element, type=ROTARYI, elset=J_832021
832021, 202021
*Rotary Inertia, elset=J_832021
1.928147032480e+3, 1.709752398884e+3, 4.017044755499e+2, 1.544446559136e+2, 3.485278175894e+1, 2.239742191476e+2
*Element, type=ROTARYI, elset=J_832022
832022, 202022
*Rotary Inertia, elset=J_832022
1.756554105227e+3, 1.564222508595e+3, 3.540100809860e+2, 1.356383841131e+2, 3.403895565806e+1, 2.016693242360e+2
*Element, type=ROTARYI, elset=J_832023
832023, 202023
*Rotary Inertia, elset=J_832023
1.551680995632e+3, 1.386715072576e+3, 3.039405086206e+2, 1.161159709350e+2, 3.195675258189e+1, 1.760481123015e+2
*Element, type=ROTARYI, elset=J_832024
832024, 202024
*Rotary Inertia, elset=J_832024
1.401281452040e+3, 1.256449319991e+3, 2.670647352473e+2, 1.017275350229e+2, 3.037874222216e+1, 1.573403352359e+2
*Element, type=ROTARYI, elset=J_832025
832025, 202025
*Rotary Inertia, elset=J_832025
1.289402896255e+3, 1.159488055024e+3, 2.399349170370e+2, 9.118317281437e+1, 2.950378226033e+1, 1.428686273844e+2
*Element, type=ROTARYI, elset=J_832026
832026, 202026
*Rotary Inertia, elset=J_832026
1.154125054795e+3, 1.040894668757e+3, 2.094388830632e+2, 7.939040994597e+1, 2.776362494560e+1, 1.262429968328e+2
*Element, type=ROTARYI, elset=J_832027
832027, 202027
*Rotary Inertia, elset=J_832027
1.008657681636e+3, 9.106509025768e+2, 1.817763406206e+2, 6.892089056781e+1, 2.533787085973e+1, 1.086453794933e+2
*Element, type=ROTARYI, elset=J_832028
832028, 202028
*Rotary Inertia, elset=J_832028
8.959510078017e+2, 8.107579715216e+2, 1.583131578853e+2, 5.991741028273e+1, 2.348890877728e+1, 9.522606867353e+1
*Element, type=ROTARYI, elset=J_832029
832029, 202029
*Rotary Inertia, elset=J_832029
7.903489219942e+2, 7.164316041314e+2, 1.377001233870e+2, 5.207131931890e+1, 2.159490348490e+1, 8.275069184819e+1
*Element, type=ROTARYI, elset=J_832030
832030, 202030
*Rotary Inertia, elset=J_832030
7.071190938756e+2, 6.417232373525e+2, 1.221346731164e+2, 4.617940352131e+1, 2.001220760551e+1, 7.298372759855e+1
*Element, type=ROTARYI, elset=J_832031
832031, 202031
*Rotary Inertia, elset=J_832031
6.096559431306e+2, 5.532371951556e+2, 1.057071308128e+2, 4.004164195993e+1, 1.780387149915e+1, 6.192169182796e+1
*Element, type=ROTARYI, elset=J_832032
832032, 202032
*Rotary Inertia, elset=J_832032
5.201782488288e+2, 4.725707795226e+2, 8.939537175102e+1, 3.385267332584e+1, 1.563734436716e+1, 5.216828926288e+1
*Element, type=ROTARYI, elset=J_832033
832033, 202033
*Rotary Inertia, elset=J_832033
4.497588944626e+2, 4.086396500713e+2, 7.742914404311e+1, 2.936186908482e+1, 1.388850668167e+1, 4.445296346248e+1
*Element, type=ROTARYI, elset=J_832034
832034, 202034
*Rotary Inertia, elset=J_832034
3.862518758537e+2, 3.508535846044e+2, 6.683107166532e+1, 2.538720556513e+1, 1.219784981050e+1, 3.766526902321e+1
*Element, type=ROTARYI, elset=J_832035
832035, 202035
*Rotary Inertia, elset=J_832035
3.344004124560e+2, 3.038827234804e+2, 5.772067521186e+1, 2.193535536055e+1, 1.075844867059e+1, 3.228551292502e+1
*Element, type=ROTARYI, elset=J_832036
832036, 202036
*Rotary Inertia, elset=J_832036
2.802213052586e+2, 2.544845327949e+2, 4.880620461797e+1, 1.858976200855e+1, 9.194453530387e+0, 2.668798589312e+1
*Element, type=ROTARYI, elset=J_832037
832037, 202037
*Rotary Inertia, elset=J_832037
2.402535478495e+2, 2.182643114863e+2, 4.176060740464e+1, 1.591124771482e+1, 7.998509515956e+0, 2.269340811417e+1
*Element, type=ROTARYI, elset=J_832038
832038, 202038
*Rotary Inertia, elset=J_832038
2.067655759579e+2, 1.878402087554e+2, 3.599245983146e+1, 1.372395022724e+1, 6.966921212124e+0, 1.937959423911e+1
*Element, type=ROTARYI, elset=J_832039
832039, 202039
*Rotary Inertia, elset=J_832039
1.755493743606e+2, 1.596495575028e+2, 3.026468434476e+1, 1.152901096036e+1, 5.988924498426e+0, 1.636514086711e+1
*Element, type=ROTARYI, elset=J_832040
832040, 202040
*Rotary Inertia, elset=J_832040
1.509939717341e+2, 1.374866323536e+2, 2.571922279290e+1, 9.782736275618e+0, 5.195337240041e+0, 1.404103847020e+1
*Element, type=ROTARYI, elset=J_832041
832041, 202041
*Rotary Inertia, elset=J_832041
1.248806117245e+2, 1.137394094740e+2, 2.123724486052e+1, 8.079742212250e+0, 4.340769213183e+0, 1.154142197548e+1
*Element, type=ROTARYI, elset=J_832042
832042, 202042
*Rotary Inertia, elset=J_832042
1.019766323524e+2, 9.296957420031e+1, 1.717180293124e+1, 6.524569343840e+0, 3.564786230990e+0, 9.412351847758e+0
*Element, type=ROTARYI, elset=J_832043
832043, 202043
*Rotary Inertia, elset=J_832043
8.241680058876e+1, 7.519715147891e+1, 1.376960202327e+1, 5.227000968132e+0, 2.900425539494e+0, 7.587849574684e+0
*Element, type=ROTARYI, elset=J_832044
832044, 202044
*Rotary Inertia, elset=J_832044
6.754843097541e+1, 6.181366516613e+1, 1.092283157990e+1, 4.124882789031e+0, 2.384233951284e+0, 6.254610848925e+0
*Element, type=ROTARYI, elset=J_832045
832045, 202045
*Rotary Inertia, elset=J_832045
5.598811202892e+1, 5.136532982001e+1, 8.793302473304e+0, 3.304674829817e+0, 1.980113379144e+0, 5.211734300573e+0
*Element, type=ROTARYI, elset=J_832046
832046, 202046
*Rotary Inertia, elset=J_832046
4.482282765588e+1, 4.127004741512e+1, 6.736292287772e+0, 2.511189371427e+0, 1.576157202030e+0, 4.228072564431e+0
*Element, type=ROTARYI, elset=J_832047
832047, 202047
*Rotary Inertia, elset=J_832047
3.323225727819e+1, 3.072564541771e+1, 4.735595386952e+0, 1.747487637367e+0, 1.164647141685e+0, 3.175669615441e+0
*Element, type=ROTARYI, elset=J_832048
832048, 202048
*Rotary Inertia, elset=J_832048
2.385176967994e+1, 2.217379716314e+1, 3.148949416383e+0, 1.143209927735e+0, 8.254266834660e-1, 2.330303179642e+0
*Element, type=ROTARYI, elset=J_832049
832049, 202049
*Rotary Inertia, elset=J_832049
1.525032301988e+1, 1.427851785286e+1, 1.802530064357e+0, 6.369707412061e-1, 5.152576584755e-1, 1.539324282386e+0
*Element, type=ROTARYI, elset=J_832050
832050, 202050
*Rotary Inertia, elset=J_832050
6.549510203306e+0, 6.180437850129e+0, 6.731308247625e-1, 2.285079968159e-1, 2.148951504591e-1, 6.854348228498e-1
*Element, type=ROTARYI, elset=J_832051
832051, 202051
*Rotary Inertia, elset=J_832051
1.322818631420e+0, 1.255664868455e+0, 1.203004949081e-1, 3.914239518299e-2, 4.209627773547e-2, 1.427573734422e-1
*Beam General Section, section=GENERAL, elset=B1S01, rotary inertia=EXACT
1.410781816725e+0, 4.911984063630e+0, 0., 4.835950149835e+0, 1.086838867505e+1
0.000000000000e+0, -4.361938736534e-2, 9.990482215819e-1
1.262712704575e+10, 2.527227435120e+9
*Transverse Shear Stiffness
2.508007394884e+9, 1.944702787774e+9, 0.25
*Shear Center
2.335712025585e-3, -6.266035215005e-3
*Beam General Section, section=GENERAL, elset=B1S02, rotary inertia=EXACT
1.428291062215e+0, 4.976631281255e+0, 0., 4.860068396500e+0, 1.094400030815e+1
0.000000000000e+0, -4.361938736534e-2, 9.990482215819e-1
1.257678573790e+10, 2.503898781065e+9
*Transverse Shear Stiffness
2.497499513196e+9, 1.960018164936e+9, 0.25
*Shear Center
3.612208434440e-3, -5.334100404865e-3
*Beam General Section, section=GENERAL, elset=B1S03, rotary inertia=EXACT
1.439092629880e+0, 4.958277085060e+0, 0., 4.799955995665e+0, 1.077897483660e+1
0.000000000000e+0, -4.361938736534e-2, 9.990482215819e-1
1.241647353435e+10, 2.454184615515e+9
*Transverse Shear Stiffness
2.415066177161e+9, 1.963467788263e+9, 0.25
*Shear Center
1.342580992871e-2, 2.528912417070e-3
*Beam General Section, section=GENERAL, elset=B1S04, rotary inertia=EXACT
1.452774959575e+0, 4.824922755430e+0, 0., 4.675270351860e+0, 1.028354993295e+1
0.000000000000e+0, -4.361938736534e-2, 9.990482215819e-1
1.188134487830e+10, 2.318264976495e+9
*Transverse Shear Stiffness
2.213182929768e+9, 1.905410632728e+9, 0.25
*Shear Center
2.308287521544e-2, 1.289115588362e-2
*Beam General Section, section=GENERAL, elset=B1S05, rotary inertia=EXACT
1.464892429250e+0, 4.397358816330e+0, 0., 4.639982745115e+0, 9.419406175845e+0
-3.649089175727e-1, -4.061153496937e-2, 9.301570755004e-1
1.119744413530e+10, 2.147559131470e+9
*Transverse Shear Stiffness
1.927098336033e+9, 1.818040958907e+9, 0.25
*Shear Center
3.500168678835e-2, 4.106310418545e-2
*Beam General Section, section=GENERAL, elset=B1S06, rotary inertia=EXACT
1.458168796995e+0, 3.774259031245e+0, 0., 4.483585224510e+0, 8.078541438825e+0
-6.341460334042e-1, -3.372709047752e-2, 7.724773729279e-1
1.055797663605e+10, 1.994437681615e+9
*Transverse Shear Stiffness
1.613062026125e+9, 1.715333970863e+9, 0.25
*Shear Center
5.746383390237e-2, 1.078655516330e-1
*Beam General Section, section=GENERAL, elset=B1S07, rotary inertia=EXACT
1.444767956330e+0, 3.226975213150e+0, 0., 4.117088697505e+0, 6.500525848275e+0
-5.123893226290e-1, -3.745829161970e-2, 8.579359291024e-1
9.922857262535e+9, 1.843850482190e+9
*Transverse Shear Stiffness
1.311263303251e+9, 1.578757317311e+9, 0.25
*Shear Center
1.549839105063e-1, 1.789502845293e-1
*Beam General Section, section=GENERAL, elset=B1S08, rotary inertia=EXACT
1.424933994755e+0, 2.680948865530e+0, 0., 3.763460088250e+0, 5.006321957430e+0
-3.799705962792e-1, -4.034787073588e-2, 9.241181717131e-1
9.510427089015e+9, 1.747686714375e+9
*Transverse Shear Stiffness
1.079488841886e+9, 1.477759068058e+9, 0.25
*Shear Center
3.106611608559e-1, 2.163888840853e-1
*Beam General Section, section=GENERAL, elset=B1S09, rotary inertia=EXACT
1.397569397455e+0, 2.235019559975e+0, 0., 3.502392564345e+0, 3.910847445370e+0
-2.857146850588e-1, -4.180110135766e-2, 9.574026251620e-1
9.356145450770e+9, 1.724581281195e+9
*Transverse Shear Stiffness
9.287562323525e+8, 1.455924120799e+9, 0.25
*Shear Center
4.544342372493e-1, 2.129003676181e-1
*Beam General Section, section=GENERAL, elset=B1S10, rotary inertia=EXACT
1.365295252770e+0, 1.877247120455e+0, 0., 3.288654680975e+0, 3.007144779600e+0
-2.185695428357e-1, -4.256473053399e-2, 9.748926087827e-1
8.999640695855e+9, 1.664625216655e+9
*Transverse Shear Stiffness
7.957956123807e+8, 1.353041827308e+9, 0.25
*Shear Center
5.462983095440e-1, 2.019276349778e-1
*Beam General Section, section=GENERAL, elset=B1S11, rotary inertia=EXACT
1.329977153940e+0, 1.607142486285e+0, 0., 3.098599747310e+0, 2.346724915740e+0
-1.722905939064e-1, -4.296711033399e-2, 9.841086213833e-1
8.531118038370e+9, 1.576045311545e+9
*Transverse Shear Stiffness
7.022583276291e+8, 1.174854522223e+9, 0.25
*Shear Center
5.501374922740e-1, 1.853148947907e-1
*Beam General Section, section=GENERAL, elset=B1S12, rotary inertia=EXACT
1.284113738430e+0, 1.414653265565e+0, 0., 2.914716826030e+0, 1.949685380875e+0
-1.434078439833e-1, -4.316852321598e-2, 9.887217348109e-1
8.283433041710e+9, 1.532853606375e+9
*Transverse Shear Stiffness
6.475118706956e+8, 1.024500964010e+9, 0.25
*Shear Center
5.273882699919e-1, 1.686657409186e-1
*Beam General Section, section=GENERAL, elset=B1S13, rotary inertia=EXACT
1.246830418975e+0, 1.259206675345e+0, 0., 2.725568139240e+0, 1.607578326205e+0
-1.254329780313e-1, -4.327488561236e-2, 9.911578342007e-1
7.989538912985e+9, 1.477117379050e+9
*Transverse Shear Stiffness
5.929068674660e+8, 8.785973052316e+8, 0.25
*Shear Center
5.307602687456e-1, 1.536067396342e-1
*Beam General Section, section=GENERAL, elset=B1S14, rotary inertia=EXACT
1.212179525430e+0, 1.123390945450e+0, 0., 2.535047246380e+0, 1.343189537395e+0
-1.121616267674e-1, -4.334414800786e-2, 9.927442038684e-1
7.771566407225e+9, 1.436653180815e+9
*Transverse Shear Stiffness
5.531820631726e+8, 7.651225501975e+8, 0.25
*Shear Center
5.228624492949e-1, 1.396093966366e-1
*Beam General Section, section=GENERAL, elset=B1S15, rotary inertia=EXACT
1.164138735825e+0, 9.770340944900e-1, 0., 2.440905263105e+0, 1.114634055400e+0
-9.570413491241e-2, -4.341916671883e-2, 9.944624148363e-1
7.686727439850e+9, 1.418128781295e+9
*Transverse Shear Stiffness
5.190662188111e+8, 6.643464075631e+8, 0.25
*Shear Center
5.447360134781e-1, 1.253342303034e-1
*Beam General Section, section=GENERAL, elset=B1S16, rotary inertia=EXACT
1.119121680940e+0, 8.411039940660e-1, 0., 2.360166710790e+0, 9.379163287130e-1
-8.214045379706e-2, -4.347198713092e-2, 9.956722011711e-1
7.716107305160e+9, 1.419034993770e+9
*Transverse Shear Stiffness
4.938892123029e+8, 6.073989785883e+8, 0.25
*Shear Center
5.602185448975e-1, 1.106571571940e-1
*Beam General Section, section=GENERAL, elset=B1S17, rotary inertia=EXACT
1.087080578240e+0, 7.375449478295e-1, 0., 2.193135641755e+0, 8.170861114280e-1
-7.656192861835e-2, -4.349135695764e-2, 9.961158431409e-1
7.792369786800e+9, 1.427243099445e+9
*Transverse Shear Stiffness
4.757905900855e+8, 5.881140208387e+8, 0.25
*Shear Center
5.462367218107e-1, 1.003382216046e-1
*Beam General Section, section=GENERAL, elset=B1S18, rotary inertia=EXACT
1.038106528185e+0, 6.391146547025e-1, 0., 1.977590684865e+0, 7.055230749595e-1
-7.284810006000e-2, -4.350349272330e-2, 9.963937978724e-1
7.988246818040e+9, 1.455878274055e+9
*Transverse Shear Stiffness
4.558550877190e+8, 5.700181411726e+8, 0.25
*Shear Center
5.277545204065e-1, 9.177629045629e-2
*Beam General Section, section=GENERAL, elset=B1S19, rotary inertia=EXACT
9.889846090265e-1, 5.549574540005e-1, 0., 1.750984256770e+0, 6.067218944180e-1
-7.001128702364e-2, -4.351235408102e-2, 9.965967563321e-1
8.162854686005e+9, 1.479402434045e+9
*Transverse Shear Stiffness
4.327910157371e+8, 5.506341259533e+8, 0.25
*Shear Center
4.974814342440e-1, 8.461132388097e-2
*Beam General Section, section=GENERAL, elset=B1S20, rotary inertia=EXACT
9.332908589455e-1, 4.787472115595e-1, 0., 1.543236108410e+0, 5.204248846150e-1
-6.607262101112e-2, -4.352407101565e-2, 9.968651182557e-1
8.430599880185e+9, 1.519639440205e+9
*Transverse Shear Stiffness
4.096929260914e+8, 5.319155058792e+8, 0.25
*Shear Center
4.743562861627e-1, 7.921408841213e-2
*Beam General Section, section=GENERAL, elset=B1S21, rotary inertia=EXACT
8.788427048830e-1, 4.097362140645e-1, 0., 1.371628509860e+0, 4.465615314850e-1
-6.105797626749e-2, -4.353800323720e-2, 9.971842185916e-1
8.716154941585e+9, 1.566615053000e+9
*Transverse Shear Stiffness
3.874654309899e+8, 5.192402423494e+8, 0.25
*Shear Center
4.582689211485e-1, 7.449123396309e-2
*Beam General Section, section=GENERAL, elset=B1S22, rotary inertia=EXACT
8.469668387255e-1, 3.588949127370e-1, 0., 1.247493373665e+0, 3.897762105540e-1
-5.619392102636e-2, -4.355046320321e-2, 9.974695987319e-1
8.786652614355e+9, 1.571694870540e+9
*Transverse Shear Stiffness
3.664347996858e+8, 4.983775611626e+8, 0.25
*Shear Center
4.451004768262e-1, 7.086152995691e-2
*Beam General Section, section=GENERAL, elset=B1S23, rotary inertia=EXACT
8.115447219440e-1, 3.134308692070e-1, 0., 1.119466414180e+0, 3.393245726990e-1
-5.214817726027e-2, -4.356003700059e-2, 9.976888747425e-1
8.896090845675e+9, 1.582863761100e+9
*Transverse Shear Stiffness
3.470272594947e+8, 4.780006162402e+8, 0.25
*Shear Center
4.289584557208e-1, 6.742576851846e-2
*Beam General Section, section=GENERAL, elset=B1S24, rotary inertia=EXACT
7.707802546090e-1, 2.714358360575e-1, 0., 9.924547598145e-1, 2.945853060780e-1
-4.825661066183e-2, -4.356856951922e-2, 9.978843015488e-1
9.059169426480e+9, 1.606734476285e+9
*Transverse Shear Stiffness
3.261590572781e+8, 4.655885384751e+8, 0.25
*Shear Center
4.101731596597e-1, 6.383474118567e-2
*Beam General Section, section=GENERAL, elset=B1S25, rotary inertia=EXACT
7.307494190425e-1, 2.338308349550e-1, 0., 8.789994378485e-1, 2.559382033970e-1
-4.411216477003e-2, -4.357692758590e-2, 9.980757327485e-1
9.223162182430e+9, 1.632152501420e+9
*Transverse Shear Stiffness
3.067667183166e+8, 4.530958401988e+8, 0.25
*Shear Center
3.961482448863e-1, 6.044060937238e-2
*Beam General Section, section=GENERAL, elset=B1S26, rotary inertia=EXACT
6.831117780880e-1, 1.993565605045e-1, 0., 7.586092690960e-1, 2.189614893720e-1
-4.070661416631e-2, -4.358323309933e-2, 9.982201527497e-1
9.472816776675e+9, 1.668406696425e+9
*Transverse Shear Stiffness
2.907195784185e+8, 4.324263934573e+8, 0.25
*Shear Center
3.758476212785e-1, 5.741439852397e-2
*Beam General Section, section=GENERAL, elset=B1S27, rotary inertia=EXACT
6.419146852110e-1, 1.708401423325e-1, 0., 6.548968325470e-1, 1.878366603750e-1
-3.753538944389e-2, -4.358864873804e-2, 9.983441912690e-1
9.632365680620e+9, 1.689987295850e+9
*Transverse Shear Stiffness
2.729166894822e+8, 4.115108003774e+8, 0.25
*Shear Center
3.561669082030e-1, 5.455601613946e-2
*Beam General Section, section=GENERAL, elset=B1S28, rotary inertia=EXACT
5.983395272680e-1, 1.452627724750e-1, 0., 5.698002449310e-1, 1.613680199640e-1
-3.404462606747e-2, -4.359410180406e-2, 9.984690870146e-1
9.946979664825e+9, 1.743623662525e+9
*Transverse Shear Stiffness
2.580773788848e+8, 3.995413622512e+8, 0.25
*Shear Center
3.438739828346e-1, 5.167632558822e-2
*Beam General Section, section=GENERAL, elset=B1S29, rotary inertia=EXACT
5.550981016700e-1, 1.229102936830e-1, 0., 4.887269531950e-1, 1.369130378900e-1
-3.098194562510e-2, -4.359844762962e-2, 9.985686227844e-1
1.022577445100e+10, 1.785348862660e+9
*Transverse Shear Stiffness
2.424362252790e+8, 3.787155091115e+8, 0.25
*Shear Center
3.286975191947e-1, 4.920841546838e-2
*Beam General Section, section=GENERAL, elset=B1S30, rotary inertia=EXACT
5.137595674050e-1, 1.042233386088e-1, 0., 4.133921956825e-1, 1.160940394100e-1
-2.843550993214e-2, -4.360174895570e-2, 9.986442355829e-1
1.051196429190e+10, 1.830102550920e+9
*Transverse Shear Stiffness
2.280469866123e+8, 3.588543197760e+8, 0.25
*Shear Center
3.097184233863e-1, 4.670998131642e-2
*Beam General Section, section=GENERAL, elset=B1S31, rotary inertia=EXACT
4.696350144730e-1, 8.702841593620e-2, 0., 3.448468903780e-1, 9.815366879995e-2
-2.600694700778e-2, -4.360463363759e-2, 9.987103056606e-1
1.092474371375e+10, 1.902460576560e+9
*Transverse Shear Stiffness
2.152560864927e+8, 3.451339865407e+8, 0.25
*Shear Center
2.939662171772e-1, 4.411355792189e-2
*Beam General Section, section=GENERAL, elset=B1S32, rotary inertia=EXACT
4.344960620070e-1, 7.393478722010e-2, 0., 2.940761681965e-1, 8.395713277395e-2
-2.361930577119e-2, -4.360721865913e-2, 9.987695123880e-1
1.122483528275e+10, 1.951663546920e+9
*Transverse Shear Stiffness
2.039636768889e+8, 3.264833358264e+8, 0.25
*Shear Center
2.822723870371e-1, 4.198119394475e-2
*Beam General Section, section=GENERAL, elset=B1S33, rotary inertia=EXACT
3.938985320865e-1, 6.177371579725e-2, 0., 2.430959909400e-1, 7.036624631145e-2
-2.161164605405e-2, -4.360919966931e-2, 9.988148849807e-1
1.167510964785e+10, 2.028286697545e+9
*Transverse Shear Stiffness
1.923868419140e+8, 3.068868047511e+8, 0.25
*Shear Center
2.664495801831e-1, 4.001849638941e-2
*Beam General Section, section=GENERAL, elset=B1S34, rotary inertia=EXACT
3.649542191250e-1, 5.266658649920e-2, 0., 2.064961117945e-1, 6.043018641100e-2
-1.991990625918e-2, -4.361073236208e-2, 9.988499894166e-1
1.182865775715e+10, 2.060444191990e+9
*Transverse Shear Stiffness
1.798119791997e+8, 2.936123818577e+8, 0.25
*Shear Center
2.528729230157e-1, 3.764211098199e-2
*Beam General Section, section=GENERAL, elset=B1S35, rotary inertia=EXACT
3.334852381860e-1, 4.449570073840e-2, 0., 1.731954698170e-1, 5.145209243710e-2
-1.823939014865e-2, -4.361213121426e-2, 9.988820283987e-1
1.215093013505e+10, 2.125091254760e+9
*Transverse Shear Stiffness
1.689938873667e+8, 2.769359811956e+8, 0.25
*Shear Center
2.417450806037e-1, 3.561477957396e-2
*Beam General Section, section=GENERAL, elset=B1S36, rotary inertia=EXACT
2.993416819370e-1, 3.689017935970e-2, 0., 1.425423319420e-1, 4.312054028125e-2
-1.672182713035e-2, -4.361328852327e-2, 9.989085351330e-1
1.259049632660e+10, 2.210327211500e+9
*Transverse Shear Stiffness
1.581572150552e+8, 2.596603499064e+8, 0.25
*Shear Center
2.321146912944e-1, 3.378916970688e-2
*Beam General Section, section=GENERAL, elset=B1S37, rotary inertia=EXACT
2.709579099195e-1, 3.082192394050e-2, 0., 1.190274747445e-1, 3.667968585995e-2
-1.559175081622e-2, -4.361408504779e-2, 9.989267785438e-1
1.287939645585e+10, 2.269605417480e+9
*Transverse Shear Stiffness
1.495168435944e+8, 2.475264755809e+8, 0.25
*Shear Center
2.217742875698e-1, 3.172658602700e-2
*Beam General Section, section=GENERAL, elset=B1S38, rotary inertia=EXACT
2.463374601430e-1, 2.575144145915e-2, 0., 9.938116931420e-2, 3.109992420630e-2
-1.437367633157e-2, -4.361488119378e-2, 9.989450132851e-1
1.295720415305e+10, 2.291368261570e+9
*Transverse Shear Stiffness
1.404098737805e+8, 2.299722832050e+8, 0.25
*Shear Center
2.129359263594e-1, 3.002799029274e-2
*Beam General Section, section=GENERAL, elset=B1S39, rotary inertia=EXACT
2.310280506815e-1, 2.213980833590e-2, 0., 8.648200309140e-2, 2.721568772345e-2
-1.328765670675e-2, -4.361553643612e-2, 9.989600208020e-1
1.260325697150e+10, 2.246545366020e+9
*Transverse Shear Stiffness
1.308956932200e+8, 2.148040110096e+8, 0.25
*Shear Center
2.082644242494e-1, 2.823760016270e-2
*Beam General Section, section=GENERAL, elset=B1S40, rotary inertia=EXACT
2.083630282720e-1, 1.830467644250e-2, 0., 7.179713568100e-2, 2.304848551920e-2
-1.232964703897e-2, -4.361607172541e-2, 9.989722809423e-1
1.265135367520e+10, 2.276953180165e+9
*Transverse Shear Stiffness
1.220223743238e+8, 2.002895669992e+8, 0.25
*Shear Center
2.011810846967e-1, 2.641025387736e-2
*Beam General Section, section=GENERAL, elset=B1S41, rotary inertia=EXACT
1.834103556030e-1, 1.469985900055e-2, 0., 5.814304864085e-2, 1.898424944060e-2
-1.152945454730e-2, -4.361648814300e-2, 9.989818184731e-1
1.290096538700e+10, 2.359033696170e+9
*Transverse Shear Stiffness
1.132198034759e+8, 1.860925940382e+8, 0.25
*Shear Center
1.948794006009e-1, 2.463313527141e-2
*Beam General Section, section=GENERAL, elset=B1S42, rotary inertia=EXACT
1.603686614255e-1, 1.174591751755e-2, 0., 4.707543080715e-2, 1.563995633200e-2
-1.089472400249e-2, -4.361679858668e-2, 9.989889288025e-1
1.319494608810e+10, 2.475622685950e+9
*Transverse Shear Stiffness
1.042561203349e+8, 1.788454206727e+8, 0.25
*Shear Center
1.894861886236e-1, 2.298357614763e-2
*Beam General Section, section=GENERAL, elset=B1S43, rotary inertia=EXACT
1.382743150150e-1, 9.216693803405e-3, 0., 3.789560189935e-2, 1.266578340485e-2
-1.024125696176e-2, -4.361709983174e-2, 9.989958284488e-1
1.337919832840e+10, 2.551959592765e+9
*Transverse Shear Stiffness
9.503383152653e+7, 1.641951443289e+8, 0.25
*Shear Center
1.863634377015e-1, 2.151533150382e-2
*Beam General Section, section=GENERAL, elset=B1S44, rotary inertia=EXACT
1.234960258390e-1, 7.452337176965e-3, 0., 3.171417936675e-2, 1.054134916169e-2
-9.710202616869e-3, -4.361733092370e-2, 9.990011213248e-1
1.288613606065e+10, 2.505576089910e+9
*Transverse Shear Stiffness
8.711715183547e+7, 1.484087857700e+8, 0.25
*Shear Center
1.853231722799e-1, 1.966074513895e-2
*Beam General Section, section=GENERAL, elset=B1S45, rotary inertia=EXACT
1.063542648420e-1, 5.763644600945e-3, 0., 2.565604048860e-2, 8.555875789450e-3
-9.692555287551e-3, -4.361733839184e-2, 9.990012923733e-1
1.280527051265e+10, 2.597417755725e+9
*Transverse Shear Stiffness
7.917148649842e+7, 1.422908771067e+8, 0.25
*Shear Center
1.874600397970e-1, 1.787866302778e-2
*Beam General Section, section=GENERAL, elset=B1S46, rotary inertia=EXACT
8.915436958085e-2, 4.230246180950e-3, 0., 2.024264227255e-2, 6.675630106880e-3
-9.770794468162e-3, -4.361730517854e-2, 9.990005316637e-1
1.261832065860e+10, 2.674399939910e+9
*Transverse Shear Stiffness
6.847881547094e+7, 1.314623585823e+8, 0.25
*Shear Center
1.888580190317e-1, 1.622359033656e-2
*Beam General Section, section=GENERAL, elset=B1S47, rotary inertia=EXACT
7.496641441830e-2, 3.043265675955e-3, 0., 1.561218501200e-2, 5.092873917285e-3
-9.956328298498e-3, -4.361722535012e-2, 9.989987032922e-1
1.188453097430e+10, 2.648262912630e+9
*Transverse Shear Stiffness
5.615051350180e+7, 1.174414786473e+8, 0.25
*Shear Center
1.885623448082e-1, 1.418168946388e-2
*Beam General Section, section=GENERAL, elset=B1S48, rotary inertia=EXACT
5.850830807920e-2, 1.871623180010e-3, 0., 1.119526584846e-2, 3.431149053770e-3
-1.118022280386e-2, -4.361666112553e-2, 9.989857804245e-1
1.134741625215e+10, 2.722785511910e+9
*Transverse Shear Stiffness
4.363391288105e+7, 1.030216871891e+8, 0.25
*Shear Center
1.969336429747e-1, 1.193004608720e-2
*Beam General Section, section=GENERAL, elset=B1S49, rotary inertia=EXACT
4.274873726020e-2, 9.142817541340e-4, 0., 6.942963382850e-3, 1.876722170715e-3
-1.292390481567e-2, -4.361574439862e-2, 9.989647839263e-1
9.870690778475e+9, 2.662185065225e+9
*Transverse Shear Stiffness
2.990023497409e+7, 7.924069232946e+7, 0.25
*Shear Center
2.028324717282e-1, 9.378720984697e-3
*Beam General Section, section=GENERAL, elset=B1S50, rotary inertia=EXACT
3.023286839610e-2, 3.333858823405e-4, 0., 3.325033666630e-3, 7.517289674905e-4
-1.525506437338e-2, -4.361431158377e-2, 9.989319670709e-1
7.775850307730e+9, 2.397351032615e+9
*Transverse Shear Stiffness
1.712566454190e+7, 5.081575624783e+7, 0.25
*Shear Center
1.810602859335e-1, 6.706759572218e-3
*Beam General Section, section=GENERAL, elset=B2S01, rotary inertia=EXACT
1.410781816725e+0, 4.911984063630e+0, 0., 4.835950149835e+0, 1.086838867505e+1
3.777549755589e-2, -1.087994910064e-1, 9.933457014258e-1
1.262712704575e+10, 2.527227435120e+9
*Transverse Shear Stiffness
2.508007394884e+9, 1.944702787774e+9, 0.25
*Shear Center
2.335712025585e-3, -6.266035215005e-3
*Beam General Section, section=GENERAL, elset=B2S02, rotary inertia=EXACT
1.428291062215e+0, 4.976631281255e+0, 0., 4.860068396500e+0, 1.094400030815e+1
3.777549755589e-2, -1.087994910064e-1, 9.933457014258e-1
1.257678573790e+10, 2.503898781065e+9
*Transverse Shear Stiffness
2.497499513196e+9, 1.960018164936e+9, 0.25
*Shear Center
3.612208434440e-3, -5.334100404865e-3
*Beam General Section, section=GENERAL, elset=B2S03, rotary inertia=EXACT
1.439092629880e+0, 4.958277085060e+0, 0., 4.799955995665e+0, 1.077897483660e+1
3.777549755589e-2, -1.087994910064e-1, 9.933457014258e-1
1.241647353435e+10, 2.454184615515e+9
*Transverse Shear Stiffness
2.415066177161e+9, 1.963467788263e+9, 0.25
*Shear Center
1.342580992871e-2, 2.528912417070e-3
*Beam General Section, section=GENERAL, elset=B2S04, rotary inertia=EXACT
1.452774959575e+0, 4.824922755430e+0, 0., 4.675270351860e+0, 1.028354993295e+1
3.777549755589e-2, -1.087994910064e-1, 9.933457014258e-1
1.188134487830e+10, 2.318264976495e+9
*Transverse Shear Stiffness
2.213182929768e+9, 1.905410632728e+9, 0.25
*Shear Center
2.308287521544e-2, 1.289115588362e-2
*Beam General Section, section=GENERAL, elset=B2S05, rotary inertia=EXACT
1.464892429250e+0, 4.397358816330e+0, 0., 4.639982745115e+0, 9.419406175845e+0
2.176250797565e-1, 2.135208109859e-1, 9.523907748067e-1
1.119744413530e+10, 2.147559131470e+9
*Transverse Shear Stiffness
1.927098336033e+9, 1.818040958907e+9, 0.25
*Shear Center
3.500168678835e-2, 4.106310418545e-2
*Beam General Section, section=GENERAL, elset=B2S06, rotary inertia=EXACT
1.458168796995e+0, 3.774259031245e+0, 0., 4.483585224510e+0, 8.078541438825e+0
3.462815338514e-1, 4.629715403655e-1, 8.159328723156e-1
1.055797663605e+10, 1.994437681615e+9
*Transverse Shear Stiffness
1.613062026125e+9, 1.715333970863e+9, 0.25
*Shear Center
5.746383390237e-2, 1.078655516330e-1
*Beam General Section, section=GENERAL, elset=B2S07, rotary inertia=EXACT
1.444767956330e+0, 3.226975213150e+0, 0., 4.117088697505e+0, 6.500525848275e+0
2.886344934395e-1, 3.486216782118e-1, 8.917135496771e-1
9.922857262535e+9, 1.843850482190e+9
*Transverse Shear Stiffness
1.311263303251e+9, 1.578757317311e+9, 0.25
*Shear Center
1.549839105063e-1, 1.789502845293e-1
*Beam General Section, section=GENERAL, elset=B2S08, rotary inertia=EXACT
1.424933994755e+0, 2.680948865530e+0, 0., 3.763460088250e+0, 5.006321957430e+0
2.249275791855e-1, 2.271726273869e-1, 9.475231825596e-1
9.510427089015e+9, 1.747686714375e+9
*Transverse Shear Stiffness
1.079488841886e+9, 1.477759068058e+9, 0.25
*Shear Center
3.106611608559e-1, 2.163888840853e-1
*Beam General Section, section=GENERAL, elset=B2S09, rotary inertia=EXACT
1.397569397455e+0, 2.235019559975e+0, 0., 3.502392564345e+0, 3.910847445370e+0
1.790581582113e-1, 1.422304514664e-1, 9.735032997652e-1
9.356145450770e+9, 1.724581281195e+9
*Transverse Shear Stiffness
9.287562323525e+8, 1.455924120799e+9, 0.25
*Shear Center
4.544342372493e-1, 2.129003676181e-1
*Beam General Section, section=GENERAL, elset=B2S10, rotary inertia=EXACT
1.365295252770e+0, 1.877247120455e+0, 0., 3.288654680975e+0, 3.007144779600e+0
1.461469093655e-1, 8.239761439762e-2, 9.858253973318e-1
8.999640695855e+9, 1.664625216655e+9
*Transverse Shear Stiffness
7.957956123807e+8, 1.353041827308e+9, 0.25
*Shear Center
5.462983095440e-1, 2.019276349778e-1
*Beam General Section, section=GENERAL, elset=B2S11, rotary inertia=EXACT
1.329977153940e+0, 1.607142486285e+0, 0., 3.098599747310e+0, 2.346724915740e+0
1.233559060296e-1, 4.146772795580e-2, 9.914957125403e-1
8.531118038370e+9, 1.576045311545e+9
*Transverse Shear Stiffness
7.022583276291e+8, 1.174854522223e+9, 0.25
*Shear Center
5.501374922740e-1, 1.853148947907e-1
*Beam General Section, section=GENERAL, elset=B2S12, rotary inertia=EXACT
1.284113738430e+0, 1.414653265565e+0, 0., 2.914716826030e+0, 1.949685380875e+0
1.090889597406e-1, 1.604733300084e-2, 9.939024509308e-1
8.283433041710e+9, 1.532853606375e+9
*Transverse Shear Stiffness
6.475118706956e+8, 1.024500964010e+9, 0.25
*Shear Center
5.273882699919e-1, 1.686657409186e-1
*Beam General Section, section=GENERAL, elset=B2S13, rotary inertia=EXACT
1.246830418975e+0, 1.259206675345e+0, 0., 2.725568139240e+0, 1.607578326205e+0
1.001936393018e-1, 2.745795345495e-4, 9.949679187037e-1
7.989538912985e+9, 1.477117379050e+9
*Transverse Shear Stiffness
5.929068674660e+8, 8.785973052316e+8, 0.25
*Shear Center
5.307602687456e-1, 1.536067396342e-1
*Beam General Section, section=GENERAL, elset=B2S14, rotary inertia=EXACT
1.212179525430e+0, 1.123390945450e+0, 0., 2.535047246380e+0, 1.343189537395e+0
9.361794666388e-2, -1.134777286433e-2, 9.955435239674e-1
7.771566407225e+9, 1.436653180815e+9
*Transverse Shear Stiffness
5.531820631726e+8, 7.651225501975e+8, 0.25
*Shear Center
5.228624492949e-1, 1.396093966366e-1
*Beam General Section, section=GENERAL, elset=B2S15, rotary inertia=EXACT
1.164138735825e+0, 9.770340944900e-1, 0., 2.440905263105e+0, 1.114634055400e+0
8.545416884586e-2, -2.573326199855e-2, 9.960097310036e-1
7.686727439850e+9, 1.418128781295e+9
*Transverse Shear Stiffness
5.190662188111e+8, 6.643464075631e+8, 0.25
*Shear Center
5.447360134781e-1, 1.253342303034e-1
*Beam General Section, section=GENERAL, elset=B2S16, rotary inertia=EXACT
1.119121680940e+0, 8.411039940660e-1, 0., 2.360166710790e+0, 9.379163287130e-1
7.871807210690e-2, -3.756680499709e-2, 9.961888376639e-1
7.716107305160e+9, 1.419034993770e+9
*Transverse Shear Stiffness
4.938892123029e+8, 6.073989785883e+8, 0.25
*Shear Center
5.602185448975e-1, 1.106571571940e-1
*Beam General Section, section=GENERAL, elset=B2S17, rotary inertia=EXACT
1.087080578240e+0, 7.375449478295e-1, 0., 2.193135641755e+0, 8.170861114280e-1
7.594558427955e-2, -4.242787955877e-2, 9.962088853572e-1
7.792369786800e+9, 1.427243099445e+9
*Transverse Shear Stiffness
4.757905900855e+8, 5.881140208387e+8, 0.25
*Shear Center
5.462367218107e-1, 1.003382216046e-1
*Beam General Section, section=GENERAL, elset=B2S18, rotary inertia=EXACT
1.038106528185e+0, 6.391146547025e-1, 0., 1.977590684865e+0, 7.055230749595e-1
7.409917988173e-2, -4.566218070148e-2, 9.962049371462e-1
7.988246818040e+9, 1.455878274055e+9
*Transverse Shear Stiffness
4.558550877190e+8, 5.700181411726e+8, 0.25
*Shear Center
5.277545204065e-1, 9.177629045629e-2
*Beam General Section, section=GENERAL, elset=B2S19, rotary inertia=EXACT
9.889846090265e-1, 5.549574540005e-1, 0., 1.750984256770e+0, 6.067218944180e-1
7.268844752445e-2, -4.813168698719e-2, 9.961926170697e-1
8.162854686005e+9, 1.479402434045e+9
*Transverse Shear Stiffness
4.327910157371e+8, 5.506341259533e+8, 0.25
*Shear Center
4.974814342440e-1, 8.461132388097e-2
*Beam General Section, section=GENERAL, elset=B2S20, rotary inertia=EXACT
9.332908589455e-1, 4.787472115595e-1, 0., 1.543236108410e+0, 5.204248846150e-1
7.072926168123e-2, -5.155891744084e-2, 9.961621602803e-1
8.430599880185e+9, 1.519639440205e+9
*Transverse Shear Stiffness
4.096929260914e+8, 5.319155058792e+8, 0.25
*Shear Center
4.743562861627e-1, 7.921408841213e-2
*Beam General Section, section=GENERAL, elset=B2S21, rotary inertia=EXACT
8.788427048830e-1, 4.097362140645e-1, 0., 1.371628509860e+0, 4.465615314850e-1
6.823400496721e-2, -5.591995250700e-2, 9.961009383982e-1
8.716154941585e+9, 1.566615053000e+9
*Transverse Shear Stiffness
3.874654309899e+8, 5.192402423494e+8, 0.25
*Shear Center
4.582689211485e-1, 7.449123396309e-2
*Beam General Section, section=GENERAL, elset=B2S22, rotary inertia=EXACT
8.469668387255e-1, 3.588949127370e-1, 0., 1.247493373665e+0, 3.897762105540e-1
6.581276799374e-2, -6.014739726910e-2, 9.960175551519e-1
8.786652614355e+9, 1.571694870540e+9
*Transverse Shear Stiffness
3.664347996858e+8, 4.983775611626e+8, 0.25
*Shear Center
4.451004768262e-1, 7.086152995691e-2
*Beam General Section, section=GENERAL, elset=B2S23, rotary inertia=EXACT
8.115447219440e-1, 3.134308692070e-1, 0., 1.119466414180e+0, 3.393245726990e-1
6.379818726243e-2, -6.366166129387e-2, 9.959302104984e-1
8.896090845675e+9, 1.582863761100e+9
*Transverse Shear Stiffness
3.470272594947e+8, 4.780006162402e+8, 0.25
*Shear Center
4.289584557208e-1, 6.742576851846e-2
*Beam General Section, section=GENERAL, elset=B2S24, rotary inertia=EXACT
7.707802546090e-1, 2.714358360575e-1, 0., 9.924547598145e-1, 2.945853060780e-1
6.185979334111e-2, -6.704031481050e-2, 9.958307899226e-1
9.059169426480e+9, 1.606734476285e+9
*Transverse Shear Stiffness
3.261590572781e+8, 4.655885384751e+8, 0.25
*Shear Center
4.101731596597e-1, 6.383474118567e-2
*Beam General Section, section=GENERAL, elset=B2S25, rotary inertia=EXACT
7.307494190425e-1, 2.338308349550e-1, 0., 8.789994378485e-1, 2.559382033970e-1
5.979480869328e-2, -7.063669972446e-2, 9.957083094488e-1
9.223162182430e+9, 1.632152501420e+9
*Transverse Shear Stiffness
3.067667183166e+8, 4.530958401988e+8, 0.25
*Shear Center
3.961482448863e-1, 6.044060937238e-2
*Beam General Section, section=GENERAL, elset=B2S26, rotary inertia=EXACT
6.831117780880e-1, 1.993565605045e-1, 0., 7.586092690960e-1, 2.189614893720e-1
5.809749412624e-2, -7.359049790159e-2, 9.955948572561e-1
9.472816776675e+9, 1.668406696425e+9
*Transverse Shear Stiffness
2.907195784185e+8, 4.324263934573e+8, 0.25
*Shear Center
3.758476212785e-1, 5.741439852397e-2
*Beam General Section, section=GENERAL, elset=B2S27, rotary inertia=EXACT
6.419146852110e-1, 1.708401423325e-1, 0., 6.548968325470e-1, 1.878366603750e-1
5.651657184572e-2, -7.633991652347e-2, 9.954788266216e-1
9.632365680620e+9, 1.689987295850e+9
*Transverse Shear Stiffness
2.729166894822e+8, 4.115108003774e+8, 0.25
*Shear Center
3.561669082030e-1, 5.455601613946e-2
*Beam General Section, section=GENERAL, elset=B2S28, rotary inertia=EXACT
5.983395272680e-1, 1.452627724750e-1, 0., 5.698002449310e-1, 1.613680199640e-1
5.477591265121e-2, -7.936510405602e-2, 9.953395298346e-1
9.946979664825e+9, 1.743623662525e+9
*Transverse Shear Stiffness
2.580773788848e+8, 3.995413622512e+8, 0.25
*Shear Center
3.438739828346e-1, 5.167632558822e-2
*Beam General Section, section=GENERAL, elset=B2S29, rotary inertia=EXACT
5.550981016700e-1, 1.229102936830e-1, 0., 4.887269531950e-1, 1.369130378900e-1
5.324833602537e-2, -8.201820985390e-2, 9.952073291344e-1
1.022577445100e+10, 1.785348862660e+9
*Transverse Shear Stiffness
2.424362252790e+8, 3.787155091115e+8, 0.25
*Shear Center
3.286975191947e-1, 4.920841546838e-2
*Beam General Section, section=GENERAL, elset=B2S30, rotary inertia=EXACT
5.137595674050e-1, 1.042233386088e-1, 0., 4.133921956825e-1, 1.160940394100e-1
5.197797721114e-2, -8.422333057590e-2, 9.950903076966e-1
1.051196429190e+10, 1.830102550920e+9
*Transverse Shear Stiffness
2.280469866123e+8, 3.588543197760e+8, 0.25
*Shear Center
3.097184233863e-1, 4.670998131642e-2
*Beam General Section, section=GENERAL, elset=B2S31, rotary inertia=EXACT
4.696350144730e-1, 8.702841593620e-2, 0., 3.448468903780e-1, 9.815366879995e-2
5.076619395676e-2, -8.632571970192e-2, 9.949726949364e-1
1.092474371375e+10, 1.902460576560e+9
*Transverse Shear Stiffness
2.152560864927e+8, 3.451339865407e+8, 0.25
*Shear Center
2.939662171772e-1, 4.411355792189e-2
*Beam General Section, section=GENERAL, elset=B2S32, rotary inertia=EXACT
4.344960620070e-1, 7.393478722010e-2, 0., 2.940761681965e-1, 8.395713277395e-2
4.957461203279e-2, -8.839205702328e-2, 9.948513467333e-1
1.122483528275e+10, 1.951663546920e+9
*Transverse Shear Stiffness
2.039636768889e+8, 3.264833358264e+8, 0.25
*Shear Center
2.822723870371e-1, 4.198119394475e-2
*Beam General Section, section=GENERAL, elset=B2S33, rotary inertia=EXACT
3.938985320865e-1, 6.177371579725e-2, 0., 2.430959909400e-1, 7.036624631145e-2
4.857249777936e-2, -9.012906633967e-2, 9.947449240183e-1
1.167510964785e+10, 2.028286697545e+9
*Transverse Shear Stiffness
1.923868419140e+8, 3.068868047511e+8, 0.25
*Shear Center
2.664495801831e-1, 4.001849638941e-2
*Beam General Section, section=GENERAL, elset=B2S34, rotary inertia=EXACT
3.649542191250e-1, 5.266658649920e-2, 0., 2.064961117945e-1, 6.043018641100e-2
4.772795523280e-2, -9.159240385360e-2, 9.946521371040e-1
1.182865775715e+10, 2.060444191990e+9
*Transverse Shear Stiffness
1.798119791997e+8, 2.936123818577e+8, 0.25
*Shear Center
2.528729230157e-1, 3.764211098199e-2
*Beam General Section, section=GENERAL, elset=B2S35, rotary inertia=EXACT
3.334852381860e-1, 4.449570073840e-2, 0., 1.731954698170e-1, 5.145209243710e-2
4.688890861905e-2, -9.304572452175e-2, 9.945571493870e-1
1.215093013505e+10, 2.125091254760e+9
*Transverse Shear Stiffness
1.689938873667e+8, 2.769359811956e+8, 0.25
*Shear Center
2.417450806037e-1, 3.561477957396e-2
*Beam General Section, section=GENERAL, elset=B2S36, rotary inertia=EXACT
2.993416819370e-1, 3.689017935970e-2, 0., 1.425423319420e-1, 4.312054028125e-2
4.613112936891e-2, -9.435785820321e-2, 9.944689605505e-1
1.259049632660e+10, 2.210327211500e+9
*Transverse Shear Stiffness
1.581572150552e+8, 2.596603499064e+8, 0.25
*Shear Center
2.321146912944e-1, 3.378916970688e-2
*Beam General Section, section=GENERAL, elset=B2S37, rotary inertia=EXACT
2.709579099195e-1, 3.082192394050e-2, 0., 1.190274747445e-1, 3.667968585995e-2
4.556678102231e-2, -9.533479561116e-2, 9.944018027000e-1
1.287939645585e+10, 2.269605417480e+9
*Transverse Shear Stiffness
1.495168435944e+8, 2.475264755809e+8, 0.25
*Shear Center
2.217742875698e-1, 3.172658602700e-2
*Beam General Section, section=GENERAL, elset=B2S38, rotary inertia=EXACT
2.463374601430e-1, 2.575144145915e-2, 0., 9.938116931420e-2, 3.109992420630e-2
4.495843326264e-2, -9.638765072921e-2, 9.943279942079e-1
1.295720415305e+10, 2.291368261570e+9
*Transverse Shear Stiffness
1.404098737805e+8, 2.299722832050e+8, 0.25
*Shear Center
2.129359263594e-1, 3.002799029274e-2
*Beam General Section, section=GENERAL, elset=B2S39, rotary inertia=EXACT
2.310280506815e-1, 2.213980833590e-2, 0., 8.648200309140e-2, 2.721568772345e-2
4.441599090674e-2, -9.732622671429e-2, 9.942609442925e-1
1.260325697150e+10, 2.246545366020e+9
*Transverse Shear Stiffness
1.308956932200e+8, 2.148040110096e+8, 0.25
*Shear Center
2.082644242494e-1, 2.823760016270e-2
*Beam General Section, section=GENERAL, elset=B2S40, rotary inertia=EXACT
2.083630282720e-1, 1.830467644250e-2, 0., 7.179713568100e-2, 2.304848551920e-2
4.393744964698e-2, -9.815406548199e-2, 9.942008247572e-1
1.265135367520e+10, 2.276953180165e+9
*Transverse Shear Stiffness
1.220223743238e+8, 2.002895669992e+8, 0.25
*Shear Center
2.011810846967e-1, 2.641025387736e-2
*Beam General Section, section=GENERAL, elset=B2S41, rotary inertia=EXACT
1.834103556030e-1, 1.469985900055e-2, 0., 5.814304864085e-2, 1.898424944060e-2
4.353771402935e-2, -9.884545414992e-2, 9.941499100493e-1
1.290096538700e+10, 2.359033696170e+9
*Transverse Shear Stiffness
1.132198034759e+8, 1.860925940382e+8, 0.25
*Shear Center
1.948794006009e-1, 2.463313527141e-2
*Beam General Section, section=GENERAL, elset=B2S42, rotary inertia=EXACT
1.603686614255e-1, 1.174591751755e-2, 0., 4.707543080715e-2, 1.563995633200e-2
4.322061760906e-2, -9.939382951653e-2, 9.941090709110e-1
1.319494608810e+10, 2.475622685950e+9
*Transverse Shear Stiffness
1.042561203349e+8, 1.788454206727e+8, 0.25
*Shear Center
1.894861886236e-1, 2.298357614763e-2
*Beam General Section, section=GENERAL, elset=B2S43, rotary inertia=EXACT
1.382743150150e-1, 9.216693803405e-3, 0., 3.789560189935e-2, 1.266578340485e-2
4.289414497457e-2, -9.995834647463e-2, 9.940666080786e-1
1.337919832840e+10, 2.551959592765e+9
*Transverse Shear Stiffness
9.503383152653e+7, 1.641951443289e+8, 0.25
*Shear Center
1.863634377015e-1, 2.151533150382e-2
*Beam General Section, section=GENERAL, elset=B2S44, rotary inertia=EXACT
1.234960258390e-1, 7.452337176965e-3, 0., 3.171417936675e-2, 1.054134916169e-2
4.262881793363e-2, -1.004170793556e-1, 9.940317872459e-1
1.288613606065e+10, 2.505576089910e+9
*Transverse Shear Stiffness
8.711715183547e+7, 1.484087857700e+8, 0.25
*Shear Center
1.853231722799e-1, 1.966074513895e-2
*Beam General Section, section=GENERAL, elset=B2S45, rotary inertia=EXACT
1.063542648420e-1, 5.763644600945e-3, 0., 2.565604048860e-2, 8.555875789450e-3
4.262000073657e-2, -1.004323228623e-1, 9.940306253138e-1
1.280527051265e+10, 2.597417755725e+9
*Transverse Shear Stiffness
7.917148649842e+7, 1.422908771067e+8, 0.25
*Shear Center
1.874600397970e-1, 1.787866302778e-2
*Beam General Section, section=GENERAL, elset=B2S46, rotary inertia=EXACT
8.915436958085e-2, 4.230246180950e-3, 0., 2.024264227255e-2, 6.675630106880e-3
4.265909156332e-2, -1.003647407369e-1, 9.940357743682e-1
1.261832065860e+10, 2.674399939910e+9
*Transverse Shear Stiffness
6.847881547094e+7, 1.314623585823e+8, 0.25
*Shear Center
1.888580190317e-1, 1.622359033656e-2
*Beam General Section, section=GENERAL, elset=B2S47, rotary inertia=EXACT
7.496641441830e-2, 3.043265675955e-3, 0., 1.561218501200e-2, 5.092873917285e-3
4.275178934504e-2, -1.002044760357e-1, 9.940479603571e-1
1.188453097430e+10, 2.648262912630e+9
*Transverse Shear Stiffness
5.615051350180e+7, 1.174414786473e+8, 0.25
*Shear Center
1.885623448082e-1, 1.418168946388e-2
*Beam General Section, section=GENERAL, elset=B2S48, rotary inertia=EXACT
5.850830807920e-2, 1.871623180010e-3, 0., 1.119526584846e-2, 3.431149053770e-3
4.336324796489e-2, -9.914717829144e-2, 9.941274896927e-1
1.134741625215e+10, 2.722785511910e+9
*Transverse Shear Stiffness
4.363391288105e+7, 1.030216871891e+8, 0.25
*Shear Center
1.969336429747e-1, 1.193004608720e-2
*Beam General Section, section=GENERAL, elset=B2S49, rotary inertia=EXACT
4.274873726020e-2, 9.142817541340e-4, 0., 6.942963382850e-3, 1.876722170715e-3
4.423429506201e-2, -9.764056507180e-2, 9.942382245684e-1
9.870690778475e+9, 2.662185065225e+9
*Transverse Shear Stiffness
2.990023497409e+7, 7.924069232946e+7, 0.25
*Shear Center
2.028324717282e-1, 9.378720984697e-3
*Beam General Section, section=GENERAL, elset=B2S50, rotary inertia=EXACT
3.023286839610e-2, 3.333858823405e-4, 0., 3.325033666630e-3, 7.517289674905e-4
4.539863398680e-2, -9.562583012450e-2, 9.943815488258e-1
7.775850307730e+9, 2.397351032615e+9
*Transverse Shear Stiffness
1.712566454190e+7, 5.081575624783e+7, 0.25
*Shear Center
1.810602859335e-1, 6.706759572218e-3
*Beam General Section, section=GENERAL, elset=B3S01, rotary inertia=EXACT
1.410781816725e+0, 4.911984063630e+0, 0., 4.835950149835e+0, 1.086838867505e+1
-3.777549755589e-2, -1.087994910064e-1, 9.933457014258e-1
1.262712704575e+10, 2.527227435120e+9
*Transverse Shear Stiffness
2.508007394884e+9, 1.944702787774e+9, 0.25
*Shear Center
2.335712025585e-3, -6.266035215005e-3
*Beam General Section, section=GENERAL, elset=B3S02, rotary inertia=EXACT
1.428291062215e+0, 4.976631281255e+0, 0., 4.860068396500e+0, 1.094400030815e+1
-3.777549755589e-2, -1.087994910064e-1, 9.933457014258e-1
1.257678573790e+10, 2.503898781065e+9
*Transverse Shear Stiffness
2.497499513196e+9, 1.960018164936e+9, 0.25
*Shear Center
3.612208434440e-3, -5.334100404865e-3
*Beam General Section, section=GENERAL, elset=B3S03, rotary inertia=EXACT
1.439092629880e+0, 4.958277085060e+0, 0., 4.799955995665e+0, 1.077897483660e+1
-3.777549755589e-2, -1.087994910064e-1, 9.933457014258e-1
1.241647353435e+10, 2.454184615515e+9
*Transverse Shear Stiffness
2.415066177161e+9, 1.963467788263e+9, 0.25
*Shear Center
1.342580992871e-2, 2.528912417070e-3
*Beam General Section, section=GENERAL, elset=B3S04, rotary inertia=EXACT
1.452774959575e+0, 4.824922755430e+0, 0., 4.675270351860e+0, 1.028354993295e+1
-3.777549755589e-2, -1.087994910064e-1, 9.933457014258e-1
1.188134487830e+10, 2.318264976495e+9
*Transverse Shear Stiffness
2.213182929768e+9, 1.905410632728e+9, 0.25
*Shear Center
2.308287521544e-2, 1.289115588362e-2
*Beam General Section, section=GENERAL, elset=B3S05, rotary inertia=EXACT
1.464892429250e+0, 4.397358816330e+0, 0., 4.639982745115e+0, 9.419406175845e+0
1.472838378162e-1, -4.161148683782e-1, 8.973047907109e-1
1.119744413530e+10, 2.147559131470e+9
*Transverse Shear Stiffness
1.927098336033e+9, 1.818040958907e+9, 0.25
*Shear Center
3.500168678835e-2, 4.106310418545e-2
*Beam General Section, section=GENERAL, elset=B3S06, rotary inertia=EXACT
1.458168796995e+0, 3.774259031245e+0, 0., 4.483585224510e+0, 8.078541438825e+0
2.878644995528e-1, -6.312219674679e-1, 7.202033446765e-1
1.055797663605e+10, 1.994437681615e+9
*Transverse Shear Stiffness
1.613062026125e+9, 1.715333970863e+9, 0.25
*Shear Center
5.746383390237e-2, 1.078655516330e-1
*Beam General Section, section=GENERAL, elset=B3S07, rotary inertia=EXACT
1.444767956330e+0, 3.226975213150e+0, 0., 4.117088697505e+0, 6.500525848275e+0
2.237548291895e-1, -5.354855159846e-1, 8.143641928432e-1
9.922857262535e+9, 1.843850482190e+9
*Transverse Shear Stiffness
1.311263303251e+9, 1.578757317311e+9, 0.25
*Shear Center
1.549839105063e-1, 1.789502845293e-1
*Beam General Section, section=GENERAL, elset=B3S08, rotary inertia=EXACT
1.424933994755e+0, 2.680948865530e+0, 0., 3.763460088250e+0, 5.006321957430e+0
1.550430170937e-1, -4.284513735778e-1, 8.901635149397e-1
9.510427089015e+9, 1.747686714375e+9
*Transverse Shear Stiffness
1.079488841886e+9, 1.477759068058e+9, 0.25
*Shear Center
3.106611608559e-1, 2.163888840853e-1
*Beam General Section, section=GENERAL, elset=B3S09, rotary inertia=EXACT
1.397569397455e+0, 2.235019559975e+0, 0., 3.502392564345e+0, 3.910847445370e+0
1.066565268475e-1, -3.507587608224e-1, 9.303723324493e-1
9.356145450770e+9, 1.724581281195e+9
*Transverse Shear Stiffness
9.287562323525e+8, 1.455924120799e+9, 0.25
*Shear Center
4.544342372493e-1, 2.129003676181e-1
*Beam General Section, section=GENERAL, elset=B3S10, rotary inertia=EXACT
1.365295252770e+0, 1.877247120455e+0, 0., 3.288654680975e+0, 3.007144779600e+0
7.242263347018e-2, -2.947353521166e-1, 9.528305381199e-1
8.999640695855e+9, 1.664625216655e+9
*Transverse Shear Stiffness
7.957956123807e+8, 1.353041827308e+9, 0.25
*Shear Center
5.462983095440e-1, 2.019276349778e-1
*Beam General Section, section=GENERAL, elset=B3S11, rotary inertia=EXACT
1.329977153940e+0, 1.607142486285e+0, 0., 3.098599747310e+0, 2.346724915740e+0
4.893468787675e-2, -2.558127711449e-1, 9.654870389817e-1
8.531118038370e+9, 1.576045311545e+9
*Transverse Shear Stiffness
7.022583276291e+8, 1.174854522223e+9, 0.25
*Shear Center
5.501374922740e-1, 1.853148947907e-1
*Beam General Section, section=GENERAL, elset=B3S12, rotary inertia=EXACT
1.284113738430e+0, 1.414653265565e+0, 0., 2.914716826030e+0, 1.949685380875e+0
3.431888424277e-2, -2.313971412894e-1, 9.722538645783e-1
8.283433041710e+9, 1.532853606375e+9
*Transverse Shear Stiffness
6.475118706956e+8, 1.024500964010e+9, 0.25
*Shear Center
5.273882699919e-1, 1.686657409186e-1
*Beam General Section, section=GENERAL, elset=B3S13, rotary inertia=EXACT
1.246830418975e+0, 1.259206675345e+0, 0., 2.725568139240e+0, 1.607578326205e+0
2.523933872946e-2, -2.161549855820e-1, 9.760327853041e-1
7.989538912985e+9, 1.477117379050e+9
*Transverse Shear Stiffness
5.929068674660e+8, 8.785973052316e+8, 0.25
*Shear Center
5.307602687456e-1, 1.536067396342e-1
*Beam General Section, section=GENERAL, elset=B3S14, rotary inertia=EXACT
1.212179525430e+0, 1.123390945450e+0, 0., 2.535047246380e+0, 1.343189537395e+0
1.854368010349e-2, -2.048781544676e-1, 9.786118095293e-1
7.771566407225e+9, 1.436653180815e+9
*Transverse Shear Stiffness
5.531820631726e+8, 7.651225501975e+8, 0.25
*Shear Center
5.228624492949e-1, 1.396093966366e-1
*Beam General Section, section=GENERAL, elset=B3S15, rotary inertia=EXACT
1.164138735825e+0, 9.770340944900e-1, 0., 2.440905263105e+0, 1.114634055400e+0
1.024996606655e-2, -1.908669024817e-1, 9.815624094945e-1
7.686727439850e+9, 1.418128781295e+9
*Transverse Shear Stiffness
5.190662188111e+8, 6.643464075631e+8, 0.25
*Shear Center
5.447360134781e-1, 1.253342303034e-1
*Beam General Section, section=GENERAL, elset=B3S16, rotary inertia=EXACT
1.119121680940e+0, 8.411039940660e-1, 0., 2.360166710790e+0, 9.379163287130e-1
3.422381690159e-3, -1.792968585508e-1, 9.837890646970e-1
7.716107305160e+9, 1.419034993770e+9
*Transverse Shear Stiffness
4.938892123029e+8, 6.073989785883e+8, 0.25
*Shear Center
5.602185448975e-1, 1.106571571940e-1
*Beam General Section, section=GENERAL, elset=B3S17, rotary inertia=EXACT
1.087080578240e+0, 7.375449478295e-1, 0., 2.193135641755e+0, 8.170861114280e-1
6.163443388032e-4, -1.745324119985e-1, 9.846512363683e-1
7.792369786800e+9, 1.427243099445e+9
*Transverse Shear Stiffness
4.757905900855e+8, 5.881140208387e+8, 0.25
*Shear Center
5.462367218107e-1, 1.003382216046e-1
*Beam General Section, section=GENERAL, elset=B3S18, rotary inertia=EXACT
1.038106528185e+0, 6.391146547025e-1, 0., 1.977590684865e+0, 7.055230749595e-1
-1.251079821732e-3, -1.713586511434e-1, 9.852079209373e-1
7.988246818040e+9, 1.455878274055e+9
*Transverse Shear Stiffness
4.558550877190e+8, 5.700181411726e+8, 0.25
*Shear Center
5.277545204065e-1, 9.177629045629e-2
*Beam General Section, section=GENERAL, elset=B3S19, rotary inertia=EXACT
9.889846090265e-1, 5.549574540005e-1, 0., 1.750984256770e+0, 6.067218944180e-1
-2.677160500812e-3, -1.689333504859e-1, 9.856238409785e-1
8.162854686005e+9, 1.479402434045e+9
*Transverse Shear Stiffness
4.327910157371e+8, 5.506341259533e+8, 0.25
*Shear Center
4.974814342440e-1, 8.461132388097e-2
*Beam General Section, section=GENERAL, elset=B3S20, rotary inertia=EXACT
9.332908589455e-1, 4.787472115595e-1, 0., 1.543236108410e+0, 5.204248846150e-1
-4.656640670111e-3, -1.655645709459e-1, 9.861879580208e-1
8.430599880185e+9, 1.519639440205e+9
*Transverse Shear Stiffness
4.096929260914e+8, 5.319155058792e+8, 0.25
*Shear Center
4.743562861627e-1, 7.921408841213e-2
*Beam General Section, section=GENERAL, elset=B3S21, rotary inertia=EXACT
8.788427048830e-1, 4.097362140645e-1, 0., 1.371628509860e+0, 4.465615314850e-1
-7.176028699717e-3, -1.612730379386e-1, 9.868837377554e-1
8.716154941585e+9, 1.566615053000e+9
*Transverse Shear Stiffness
3.874654309899e+8, 5.192402423494e+8, 0.25
*Shear Center
4.582689211485e-1, 7.449123396309e-2
*Beam General Section, section=GENERAL, elset=B3S22, rotary inertia=EXACT
8.469668387255e-1, 3.588949127370e-1, 0., 1.247493373665e+0, 3.897762105540e-1
-9.618846967381e-3, -1.571077507648e-1, 9.875346234096e-1
8.786652614355e+9, 1.571694870540e+9
*Transverse Shear Stiffness
3.664347996858e+8, 4.983775611626e+8, 0.25
*Shear Center
4.451004768262e-1, 7.086152995691e-2
*Beam General Section, section=GENERAL, elset=B3S23, rotary inertia=EXACT
8.115447219440e-1, 3.134308692070e-1, 0., 1.119466414180e+0, 3.393245726990e-1
-1.165001000217e-2, -1.536412464333e-1, 9.880580168499e-1
8.896090845675e+9, 1.582863761100e+9
*Transverse Shear Stiffness
3.470272594947e+8, 4.780006162402e+8, 0.25
*Shear Center
4.289584557208e-1, 6.742576851846e-2
*Beam General Section, section=GENERAL, elset=B3S24, rotary inertia=EXACT
7.707802546090e-1, 2.714358360575e-1, 0., 9.924547598145e-1, 2.945853060780e-1
-1.360318267928e-2, -1.503051581034e-1, 9.885460600642e-1
9.059169426480e+9, 1.606734476285e+9
*Transverse Shear Stiffness
3.261590572781e+8, 4.655885384751e+8, 0.25
*Shear Center
4.101731596597e-1, 6.383474118567e-2
*Beam General Section, section=GENERAL, elset=B3S25, rotary inertia=EXACT
7.307494190425e-1, 2.338308349550e-1, 0., 8.789994378485e-1, 2.559382033970e-1
-1.568264392325e-2, -1.467504681080e-1, 9.890492175770e-1
9.223162182430e+9, 1.632152501420e+9
*Transverse Shear Stiffness
3.067667183166e+8, 4.530958401988e+8, 0.25
*Shear Center
3.961482448863e-1, 6.044060937238e-2
*Beam General Section, section=GENERAL, elset=B3S26, rotary inertia=EXACT
6.831117780880e-1, 1.993565605045e-1, 0., 7.586092690960e-1, 2.189614893720e-1
-1.739087995993e-2, -1.438281255148e-1, 9.894498610870e-1
9.472816776675e+9, 1.668406696425e+9
*Transverse Shear Stiffness
2.907195784185e+8, 4.324263934573e+8, 0.25
*Shear Center
3.758476212785e-1, 5.741439852397e-2
*Beam General Section, section=GENERAL, elset=B3S27, rotary inertia=EXACT
6.419146852110e-1, 1.708401423325e-1, 0., 6.548968325470e-1, 1.878366603750e-1
-1.898118240183e-2, -1.411057232621e-1, 9.898125527479e-1
9.632365680620e+9, 1.689987295850e+9
*Transverse Shear Stiffness
2.729166894822e+8, 4.115108003774e+8, 0.25
*Shear Center
3.561669082030e-1, 5.455601613946e-2
*Beam General Section, section=GENERAL, elset=B3S28, rotary inertia=EXACT
5.983395272680e-1, 1.452627724750e-1, 0., 5.698002449310e-1, 1.613680199640e-1
-2.073128658375e-2, -1.381077388079e-1, 9.902002152282e-1
9.946979664825e+9, 1.743623662525e+9
*Transverse Shear Stiffness
2.580773788848e+8, 3.995413622512e+8, 0.25
*Shear Center
3.438739828346e-1, 5.167632558822e-2
*Beam General Section, section=GENERAL, elset=B3S29, rotary inertia=EXACT
5.550981016700e-1, 1.229102936830e-1, 0., 4.887269531950e-1, 1.369130378900e-1
-2.226639040027e-2, -1.354763125263e-1, 9.905303511770e-1
1.022577445100e+10, 1.785348862660e+9
*Transverse Shear Stiffness
2.424362252790e+8, 3.787155091115e+8, 0.25
*Shear Center
3.286975191947e-1, 4.920841546838e-2
*Beam General Section, section=GENERAL, elset=B3S30, rotary inertia=EXACT
5.137595674050e-1, 1.042233386088e-1, 0., 4.133921956825e-1, 1.160940394100e-1
-2.354246727899e-2, -1.332876607471e-1, 9.907977350231e-1
1.051196429190e+10, 1.830102550920e+9
*Transverse Shear Stiffness
2.280469866123e+8, 3.588543197760e+8, 0.25
*Shear Center
3.097184233863e-1, 4.670998131642e-2
*Beam General Section, section=GENERAL, elset=B3S31, rotary inertia=EXACT
4.696350144730e-1, 8.702841593620e-2, 0., 3.448468903780e-1, 9.815366879995e-2
-2.475924694897e-2, -1.311996620993e-1, 9.910467336890e-1
1.092474371375e+10, 1.902460576560e+9
*Transverse Shear Stiffness
2.152560864927e+8, 3.451339865407e+8, 0.25
*Shear Center
2.939662171772e-1, 4.411355792189e-2
*Beam General Section, section=GENERAL, elset=B3S32, rotary inertia=EXACT
4.344960620070e-1, 7.393478722010e-2, 0., 2.940761681965e-1, 8.395713277395e-2
-2.595530626160e-2, -1.291462203753e-1, 9.912858194485e-1
1.122483528275e+10, 1.951663546920e+9
*Transverse Shear Stiffness
2.039636768889e+8, 3.264833358264e+8, 0.25
*Shear Center
2.822723870371e-1, 4.198119394475e-2
*Beam General Section, section=GENERAL, elset=B3S33, rotary inertia=EXACT
3.938985320865e-1, 6.177371579725e-2, 0., 2.430959909400e-1, 7.036624631145e-2
-2.696085172531e-2, -1.274190934948e-1, 9.914824693797e-1
1.167510964785e+10, 2.028286697545e+9
*Transverse Shear Stiffness
1.923868419140e+8, 3.068868047511e+8, 0.25
*Shear Center
2.664495801831e-1, 4.001849638941e-2
*Beam General Section, section=GENERAL, elset=B3S34, rotary inertia=EXACT
3.649542191250e-1, 5.266658649920e-2, 0., 2.064961117945e-1, 6.043018641100e-2
-2.780804897362e-2, -1.259634019476e-1, 9.916450644167e-1
1.182865775715e+10, 2.060444191990e+9
*Transverse Shear Stiffness
1.798119791997e+8, 2.936123818577e+8, 0.25
*Shear Center
2.528729230157e-1, 3.764211098199e-2
*Beam General Section, section=GENERAL, elset=B3S35, rotary inertia=EXACT
3.334852381860e-1, 4.449570073840e-2, 0., 1.731954698170e-1, 5.145209243710e-2
-2.864951847040e-2, -1.245170595711e-1, 9.918037643441e-1
1.215093013505e+10, 2.125091254760e+9
*Transverse Shear Stiffness
1.689938873667e+8, 2.769359811956e+8, 0.25
*Shear Center
2.417450806037e-1, 3.561477957396e-2
*Beam General Section, section=GENERAL, elset=B3S36, rotary inertia=EXACT
2.993416819370e-1, 3.689017935970e-2, 0., 1.425423319420e-1, 4.312054028125e-2
-2.940930223856e-2, -1.232106992230e-1, 9.919446640508e-1
1.259049632660e+10, 2.210327211500e+9
*Transverse Shear Stiffness
1.581572150552e+8, 2.596603499064e+8, 0.25
*Shear Center
2.321146912944e-1, 3.378916970688e-2
*Beam General Section, section=GENERAL, elset=B3S37, rotary inertia=EXACT
2.709579099195e-1, 3.082192394050e-2, 0., 1.190274747445e-1, 3.667968585995e-2
-2.997503020609e-2, -1.222377353446e-1, 9.920481004578e-1
1.287939645585e+10, 2.269605417480e+9
*Transverse Shear Stiffness
1.495168435944e+8, 2.475264755809e+8, 0.25
*Shear Center
2.217742875698e-1, 3.172658602700e-2
*Beam General Section, section=GENERAL, elset=B3S38, rotary inertia=EXACT
2.463374601430e-1, 2.575144145915e-2, 0., 9.938116931420e-2, 3.109992420630e-2
-3.058475693107e-2, -1.211888518678e-1, 9.921581702664e-1
1.295720415305e+10, 2.291368261570e+9
*Transverse Shear Stiffness
1.404098737805e+8, 2.299722832050e+8, 0.25
*Shear Center
2.129359263594e-1, 3.002799029274e-2
*Beam General Section, section=GENERAL, elset=B3S39, rotary inertia=EXACT
2.310280506815e-1, 2.213980833590e-2, 0., 8.648200309140e-2, 2.721568772345e-2
-3.112833419999e-2, -1.202535446142e-1, 9.922550638912e-1
1.260325697150e+10, 2.246545366020e+9
*Transverse Shear Stiffness
1.308956932200e+8, 2.148040110096e+8, 0.25
*Shear Center
2.082644242494e-1, 2.823760016270e-2
*Beam General Section, section=GENERAL, elset=B3S40, rotary inertia=EXACT
2.083630282720e-1, 1.830467644250e-2, 0., 7.179713568100e-2, 2.304848551920e-2
-3.160780260800e-2, -1.194283761822e-1, 9.923395637466e-1
1.265135367520e+10, 2.276953180165e+9
*Transverse Shear Stiffness
1.220223743238e+8, 2.002895669992e+8, 0.25
*Shear Center
2.011810846967e-1, 2.641025387736e-2
*Beam General Section, section=GENERAL, elset=B3S41, rotary inertia=EXACT
1.834103556030e-1, 1.469985900055e-2, 0., 5.814304864085e-2, 1.898424944060e-2
-3.200825948205e-2, -1.187390648484e-1, 9.924094446366e-1
1.290096538700e+10, 2.359033696170e+9
*Transverse Shear Stiffness
1.132198034759e+8, 1.860925940382e+8, 0.25
*Shear Center
1.948794006009e-1, 2.463313527141e-2
*Beam General Section, section=GENERAL, elset=B3S42, rotary inertia=EXACT
1.603686614255e-1, 1.174591751755e-2, 0., 4.707543080715e-2, 1.563995633200e-2
-3.232589360657e-2, -1.181922381562e-1, 9.924644232627e-1
1.319494608810e+10, 2.475622685950e+9
*Transverse Shear Stiffness
1.042561203349e+8, 1.788454206727e+8, 0.25
*Shear Center
1.894861886236e-1, 2.298357614763e-2
*Beam General Section, section=GENERAL, elset=B3S43, rotary inertia=EXACT
1.382743150150e-1, 9.216693803405e-3, 0., 3.789560189935e-2, 1.266578340485e-2
-3.265288801281e-2, -1.176292239844e-1, 9.925206066220e-1
1.337919832840e+10, 2.551959592765e+9
*Transverse Shear Stiffness
9.503383152653e+7, 1.641951443289e+8, 0.25
*Shear Center
1.863634377015e-1, 2.151533150382e-2
*Beam General Section, section=GENERAL, elset=B3S44, rotary inertia=EXACT
1.234960258390e-1, 7.452337176965e-3, 0., 3.171417936675e-2, 1.054134916169e-2
-3.291861531676e-2, -1.171716439251e-1, 9.925659527838e-1
1.288613606065e+10, 2.505576089910e+9
*Transverse Shear Stiffness
8.711715183547e+7, 1.484087857700e+8, 0.25
*Shear Center
1.853231722799e-1, 1.966074513895e-2
*Beam General Section, section=GENERAL, elset=B3S45, rotary inertia=EXACT
1.063542648420e-1, 5.763644600945e-3, 0., 2.565604048860e-2, 8.555875789450e-3
-3.292744544902e-2, -1.171564376739e-1, 9.925674548603e-1
1.280527051265e+10, 2.597417755725e+9
*Transverse Shear Stiffness
7.917148649842e+7, 1.422908771067e+8, 0.25
*Shear Center
1.874600397970e-1, 1.787866302778e-2
*Beam General Section, section=GENERAL, elset=B3S46, rotary inertia=EXACT
8.915436958085e-2, 4.230246180950e-3, 0., 2.024264227255e-2, 6.675630106880e-3
-3.288829709516e-2, -1.172238541119e-1, 9.925607930708e-1
1.261832065860e+10, 2.674399939910e+9
*Transverse Shear Stiffness
6.847881547094e+7, 1.314623585823e+8, 0.25
*Shear Center
1.888580190317e-1, 1.622359033656e-2
*Beam General Section, section=GENERAL, elset=B3S47, rotary inertia=EXACT
7.496641441830e-2, 3.043265675955e-3, 0., 1.561218501200e-2, 5.092873917285e-3
-3.279546104655e-2, -1.173837205823e-1, 9.925449712114e-1
1.188453097430e+10, 2.648262912630e+9
*Transverse Shear Stiffness
5.615051350180e+7, 1.174414786473e+8, 0.25
*Shear Center
1.885623448082e-1, 1.418168946388e-2
*Beam General Section, section=GENERAL, elset=B3S48, rotary inertia=EXACT
5.850830807920e-2, 1.871623180010e-3, 0., 1.119526584846e-2, 3.431149053770e-3
-3.218302516104e-2, -1.184382036448e-1, 9.924397436665e-1
1.134741625215e+10, 2.722785511910e+9
*Transverse Shear Stiffness
4.363391288105e+7, 1.030216871891e+8, 0.25
*Shear Center
1.969336429747e-1, 1.193004608720e-2
*Beam General Section, section=GENERAL, elset=B3S49, rotary inertia=EXACT
4.274873726020e-2, 9.142817541340e-4, 0., 6.942963382850e-3, 1.876722170715e-3
-3.131039024634e-2, -1.199402436951e-1, 9.922872554885e-1
9.870690778475e+9, 2.662185065225e+9
*Transverse Shear Stiffness
2.990023497409e+7, 7.924069232946e+7, 0.25
*Shear Center
2.028324717282e-1, 9.378720984697e-3
*Beam General Section, section=GENERAL, elset=B3S50, rotary inertia=EXACT
3.023286839610e-2, 3.333858823405e-4, 0., 3.325033666630e-3, 7.517289674905e-4
-3.014356961342e-2, -1.219478309251e-1, 9.920786721544e-1
7.775850307730e+9, 2.397351032615e+9
*Transverse Shear Stiffness
1.712566454190e+7, 5.081575624783e+7, 0.25
*Shear Center
1.810602859335e-1, 6.706759572218e-3
*MPC
BEAM, 200001, 100001
*MPC
BEAM, 200002, 100002
*MPC
BEAM, 200003, 100003
*MPC
BEAM, 200004, 100004
*MPC
BEAM, 200005, 100005
*MPC
BEAM, 200006, 100006
*MPC
BEAM, 200007, 100007
*MPC
BEAM, 200008, 100008
*MPC
BEAM, 200009, 100009
*MPC
BEAM, 200010, 100010
*MPC
BEAM, 200011, 100011
*MPC
BEAM, 200012, 100012
*MPC
BEAM, 200013, 100013
*MPC
BEAM, 200014, 100014
*MPC
BEAM, 200015, 100015
*MPC
BEAM, 200016, 100016
*MPC
BEAM, 200017, 100017
*MPC
BEAM, 200018, 100018
*MPC
BEAM, 200019, 100019
*MPC
BEAM, 200020, 100020
*MPC
BEAM, 200021, 100021
*MPC
BEAM, 200022, 100022
*MPC
BEAM, 200023, 100023
*MPC
BEAM, 200024, 100024
*MPC
BEAM, 200025, 100025
*MPC
BEAM, 200026, 100026
*MPC
BEAM, 200027, 100027
*MPC
BEAM, 200028, 100028
*MPC
BEAM, 200029, 100029
*MPC
BEAM, 200030, 100030
*MPC
BEAM, 200031, 100031
*MPC
BEAM, 200032, 100032
*MPC
BEAM, 200033, 100033
*MPC
BEAM, 200034, 100034
*MPC
BEAM, 200035, 100035
*MPC
BEAM, 200036, 100036
*MPC
BEAM, 200037, 100037
*MPC
BEAM, 200038, 100038
*MPC
BEAM, 200039, 100039
*MPC
BEAM, 200040, 100040
*MPC
BEAM, 200041, 100041
*MPC
BEAM, 200042, 100042
*MPC
BEAM, 200043, 100043
*MPC
BEAM, 200044, 100044
*MPC
BEAM, 200045, 100045
*MPC
BEAM, 200046, 100046
*MPC
BEAM, 200047, 100047
*MPC
BEAM, 200048, 100048
*MPC
BEAM, 200049, 100049
*MPC
BEAM, 200050, 100050
*MPC
BEAM, 200051, 100051
*MPC
BEAM, 201001, 101001
*MPC
BEAM, 201002, 101002
*MPC
BEAM, 201003, 101003
*MPC
BEAM, 201004, 101004
*MPC
BEAM, 201005, 101005
*MPC
BEAM, 201006, 101006
*MPC
BEAM, 201007, 101007
*MPC
BEAM, 201008, 101008
*MPC
BEAM, 201009, 101009
*MPC
BEAM, 201010, 101010
*MPC
BEAM, 201011, 101011
*MPC
BEAM, 201012, 101012
*MPC
BEAM, 201013, 101013
*MPC
BEAM, 201014, 101014
*MPC
BEAM, 201015, 101015
*MPC
BEAM, 201016, 101016
*MPC
BEAM, 201017, 101017
*MPC
BEAM, 201018, 101018
*MPC
BEAM, 201019, 101019
*MPC
BEAM, 201020, 101020
*MPC
BEAM, 201021, 101021
*MPC
BEAM, 201022, 101022
*MPC
BEAM, 201023, 101023
*MPC
BEAM, 201024, 101024
*MPC
BEAM, 201025, 101025
*MPC
BEAM, 201026, 101026
*MPC
BEAM, 201027, 101027
*MPC
BEAM, 201028, 101028
*MPC
BEAM, 201029, 101029
*MPC
BEAM, 201030, 101030
*MPC
BEAM, 201031, 101031
*MPC
BEAM, 201032, 101032
*MPC
BEAM, 201033, 101033
*MPC
BEAM, 201034, 101034
*MPC
BEAM, 201035, 101035
*MPC
BEAM, 201036, 101036
*MPC
BEAM, 201037, 101037
*MPC
BEAM, 201038, 101038
*MPC
BEAM, 201039, 101039
*MPC
BEAM, 201040, 101040
*MPC
BEAM, 201041, 101041
*MPC
BEAM, 201042, 101042
*MPC
BEAM, 201043, 101043
*MPC
BEAM, 201044, 101044
*MPC
BEAM, 201045, 101045
*MPC
BEAM, 201046, 101046
*MPC
BEAM, 201047, 101047
*MPC
BEAM, 201048, 101048
*MPC
BEAM, 201049, 101049
*MPC
BEAM, 201050, 101050
*MPC
BEAM, 201051, 101051
*MPC
BEAM, 202001, 102001
*MPC
BEAM, 202002, 102002
*MPC
BEAM, 202003, 102003
*MPC
BEAM, 202004, 102004
*MPC
BEAM, 202005, 102005
*MPC
BEAM, 202006, 102006
*MPC
BEAM, 202007, 102007
*MPC
BEAM, 202008, 102008
*MPC
BEAM, 202009, 102009
*MPC
BEAM, 202010, 102010
*MPC
BEAM, 202011, 102011
*MPC
BEAM, 202012, 102012
*MPC
BEAM, 202013, 102013
*MPC
BEAM, 202014, 102014
*MPC
BEAM, 202015, 102015
*MPC
BEAM, 202016, 102016
*MPC
BEAM, 202017, 102017
*MPC
BEAM, 202018, 102018
*MPC
BEAM, 202019, 102019
*MPC
BEAM, 202020, 102020
*MPC
BEAM, 202021, 102021
*MPC
BEAM, 202022, 102022
*MPC
BEAM, 202023, 102023
*MPC
BEAM, 202024, 102024
*MPC
BEAM, 202025, 102025
*MPC
BEAM, 202026, 102026
*MPC
BEAM, 202027, 102027
*MPC
BEAM, 202028, 102028
*MPC
BEAM, 202029, 102029
*MPC
BEAM, 202030, 102030
*MPC
BEAM, 202031, 102031
*MPC
BEAM, 202032, 102032
*MPC
BEAM, 202033, 102033
*MPC
BEAM, 202034, 102034
*MPC
BEAM, 202035, 102035
*MPC
BEAM, 202036, 102036
*MPC
BEAM, 202037, 102037
*MPC
BEAM, 202038, 102038
*MPC
BEAM, 202039, 102039
*MPC
BEAM, 202040, 102040
*MPC
BEAM, 202041, 102041
*MPC
BEAM, 202042, 102042
*MPC
BEAM, 202043, 102043
*MPC
BEAM, 202044, 102044
*MPC
BEAM, 202045, 102045
*MPC
BEAM, 202046, 102046
*MPC
BEAM, 202047, 102047
*MPC
BEAM, 202048, 102048
*MPC
BEAM, 202049, 102049
*MPC
BEAM, 202050, 102050
*MPC
BEAM, 202051, 102051
*Rigid Body, ref node=900000, tie nset=RNA_RIGID
*End Part

*Assembly, name=ASSEMBLY
*Instance, name=RNA_DPM_I, part=RNA_DPM
*End Instance
*End Assembly
*Boundary
RNA_DPM_I.RNA_TOP, 1, 6, 0.
*Step, name=MODAL, perturbation
*Frequency, eigensolver=Lanczos
30,
*Output, field
*Node Output
U
*End Step
