*Heading
T026 proposed one-dimensional CDP control; exact original C65 mu0 card
*Node,nset=ALLN
1,0,0,0
2,1,0,0
*Element,type=T3D2,elset=BODY
1,1,2
*Nset,nset=DRIVE
2,
*Solid Section,elset=BODY,material=C65
1.,
*Material, name=C65
*Density
2400.,
*Elastic
 3.65e+10, 0.2
*Concrete Damaged Plasticity
30.,0.1,1.16,0.666667,0
*Concrete Compression Hardening
 3.08054e+07,          0.
   3.746e+07, 0.000227671
 4.06679e+07, 0.000455342
    4.15e+07, 0.000683014
 4.07435e+07, 0.000910685
 3.89623e+07,  0.00113836
 3.65615e+07,  0.00136603
 2.80955e+07,  0.00204904
 1.91066e+07,  0.00284589
 3.78729e+06,  0.00569178
*Concrete Tension Stiffening
  2.93e+06,     0.
 2.344e+06, 0.0001
 1.758e+06, 0.0002
 1.172e+06, 0.0004
   732500., 0.0006
   293000., 0.0008
    29300.,  0.001
*Concrete Compression Damage
      0.,          0.
      0., 0.000227671
      0., 0.000455342
      0., 0.000683014
 0.01823, 0.000910685
 0.06115,  0.00113836
   0.119,  0.00136603
   0.323,  0.00204904
  0.5396,  0.00284589
 0.90874,  0.00569178
*Concrete Tension Damage
   0.,     0.
  0.2, 0.0001
  0.4, 0.0002
  0.6, 0.0004
 0.75, 0.0006
  0.9, 0.0008
 0.99,  0.001
*Boundary
1,1,3
2,2,3
*Time Points,name=TABLE_NODES
0,0.058381070983810714,0.11943212951432132,0.1804831880448319,0.31426151930261526,0.45095890410958905,0.58765628891656296,0.72785653798256544
*Amplitude,name=MONOTONIC
0.,0.,0.72785653798256544,1.
*Step,name=ExactTable,nlgeom=NO,inc=3000
*Static
0.001,0.72785653798256544,1e-10,0.002
*Boundary,amplitude=MONOTONIC
DRIVE,1,1,0.0010008027397260275
*Output,field,time points=TABLE_NODES,time marks=YES
*Node Output,nset=ALLN
U,RF
*Element Output,elset=BODY
S,E,EE,PE,PEEQ,PEEQT,DAMAGET,DAMAGEC,SDEG
*Output,history,frequency=1
*Element Output,elset=BODY
S11,E11,PE11,PEEQ,PEEQT,DAMAGET,DAMAGEC,SDEG
*Energy Output
ALLAE,ALLIE,ALLSE,ALLVD,ALLPD,ALLDMD,ALLWK
*End Step
