**************************************************************
** generated by C:\workdir\addglue\trunk\src\addglue.py
** 2013-05-18 23:39:29.590000
**************************************************************
**
********************
** NODAL COORDINATES
********************
*NODE
101497, -3.62116909E+00, 5.54162278E-01, 2.11529379E+01
101498, -3.16448903E+00, 6.77191645E-01, 2.11529331E+01
101499, -3.14861930E+00, 6.83327109E-01, 2.09370003E+01
101500, -3.60539747E+00, 5.58712691E-01, 2.09370003E+01
101501, -3.63640058E+00, 5.49764156E-01, 2.13689184E+01
101502, -3.17982448E+00, 6.71223700E-01, 2.13689127E+01
101503, -3.16448903E+00, 6.77191645E-01, 2.11529331E+01
101504, -3.62116909E+00, 5.54162278E-01, 2.11529379E+01
101505, -3.65109217E+00, 5.45518994E-01, 2.15849399E+01
101506, -3.19462573E+00, 6.65443272E-01, 2.15849342E+01
101507, -3.17982448E+00, 6.71223700E-01, 2.13689127E+01
101508, -3.63640058E+00, 5.49764156E-01, 2.13689184E+01
101509, -3.66524351E+00, 5.41427300E-01, 2.18010006E+01
101510, -3.20889306E+00, 6.59870326E-01, 2.18010006E+01
101511, -3.19462573E+00, 6.65443272E-01, 2.15849342E+01
101512, -3.65109217E+00, 5.45518994E-01, 2.15849399E+01
101513, -3.67881489E+00, 5.37525415E-01, 2.20166979E+01
101514, -3.22258210E+00, 6.54556721E-01, 2.20166951E+01
101515, -3.20889306E+00, 6.59870326E-01, 2.18010006E+01
101516, -3.66524351E+00, 5.41427300E-01, 2.18010006E+01
101517, -3.69183803E+00, 5.33795625E-01, 2.22324343E+01
101518, -3.23572648E+00, 6.49468958E-01, 2.22324314E+01
101519, -3.22258210E+00, 6.54556721E-01, 2.20166951E+01
101520, -3.67881489E+00, 5.37525415E-01, 2.20166979E+01
101521, -3.70434142E+00, 5.30180439E-01, 2.24482022E+01
101522, -3.24836195E+00, 6.44530624E-01, 2.24482002E+01
101523, -3.23572648E+00, 6.49468958E-01, 2.22324314E+01
101524, -3.69183803E+00, 5.33795625E-01, 2.22324343E+01
101525, -3.71635377E+00, 5.26622341E-01, 2.26639996E+01
101526, -3.26052475E+00, 6.39665335E-01, 2.26639996E+01
101527, -3.24836195E+00, 6.44530624E-01, 2.24482002E+01
101528, -3.70434142E+00, 5.30180439E-01, 2.24482022E+01
101529, -3.72787548E+00, 5.23104891E-01, 2.28799601E+01
101530, -3.27221489E+00, 6.34860650E-01, 2.28799591E+01
101531, -3.26052475E+00, 6.39665335E-01, 2.26639996E+01
101532, -3.71635377E+00, 5.26622341E-01, 2.26639996E+01
101533, -3.73888767E+00, 5.19660622E-01, 2.30959492E+01
101534, -3.28341091E+00, 6.30156756E-01, 2.30959482E+01
101535, -3.27221489E+00, 6.34860650E-01, 2.28799591E+01
101536, -3.72787548E+00, 5.23104891E-01, 2.28799601E+01
101537, -3.74941373E+00, 5.16299293E-01, 2.33119621E+01
101538, -3.29413772E+00, 6.25547499E-01, 2.33119621E+01
101539, -3.28341091E+00, 6.30156756E-01, 2.30959482E+01
101540, -3.73888767E+00, 5.19660622E-01, 2.30959492E+01
101541, -3.75947642E+00, 5.13030588E-01, 2.35279999E+01
101542, -3.30442047E+00, 6.21026665E-01, 2.35279999E+01
101543, -3.29413772E+00, 6.25547499E-01, 2.33119621E+01
101544, -3.74941373E+00, 5.16299293E-01, 2.33119621E+01
101545, -3.76906311E+00, 5.09864628E-01, 2.37439690E+01
101546, -3.31424594E+00, 6.16605371E-01, 2.37439680E+01
101547, -3.30442047E+00, 6.21026665E-01, 2.35279999E+01
101548, -3.75947642E+00, 5.13030588E-01, 2.35279999E+01
101549, -3.77817058E+00, 5.06792739E-01, 2.39599600E+01
101550, -3.32361019E+00, 6.12281382E-01, 2.39599599E+01
101551, -3.31424594E+00, 6.16605371E-01, 2.37439680E+01
101552, -3.76906311E+00, 5.09864628E-01, 2.37439690E+01
101553, -3.78682375E+00, 5.03800854E-01, 2.41759711E+01
101554, -3.33253944E+00, 6.08034342E-01, 2.41759711E+01
101555, -3.32361019E+00, 6.12281382E-01, 2.39599599E+01
101556, -3.77817058E+00, 5.06792739E-01, 2.39599600E+01
101557, -3.79504716E+00, 5.00874847E-01, 2.43920002E+01
101558, -3.34105969E+00, 6.03843882E-01, 2.43920002E+01
101559, -3.33253944E+00, 6.08034342E-01, 2.41759711E+01
101560, -3.78682375E+00, 5.03800854E-01, 2.41759711E+01
101561, -3.80282354E+00, 4.98024166E-01, 2.46077271E+01
101562, -3.34915280E+00, 5.99721596E-01, 2.46077271E+01
101563, -3.34105969E+00, 6.03843882E-01, 2.43920002E+01
101564, -3.79504716E+00, 5.00874847E-01, 2.43920002E+01
101565, -3.81015610E+00, 4.95248914E-01, 2.48234701E+01
101566, -3.35682201E+00, 5.95668450E-01, 2.48234701E+01
101567, -3.34915280E+00, 5.99721596E-01, 2.46077271E+01
101568, -3.80282354E+00, 4.98024166E-01, 2.46077271E+01
101569, -3.81706584E+00, 4.92534026E-01, 2.50392284E+01
101570, -3.36408913E+00, 5.91666729E-01, 2.50392284E+01
101571, -3.35682201E+00, 5.95668450E-01, 2.48234701E+01
101572, -3.81015610E+00, 4.95248914E-01, 2.48234701E+01
101573, -3.82357359E+00, 4.89864319E-01, 2.52549992E+01
101574, -3.37097501E+00, 5.87698728E-01, 2.52549992E+01
101575, -3.36408913E+00, 5.91666729E-01, 2.50392284E+01
101576, -3.81706584E+00, 4.92534026E-01, 2.50392284E+01
101577, -3.82967770E+00, 4.87240493E-01, 2.54709835E+01
101578, -3.37747920E+00, 5.83764106E-01, 2.54709825E+01
101579, -3.37097501E+00, 5.87698728E-01, 2.52549992E+01
101580, -3.82357359E+00, 4.89864319E-01, 2.52549992E+01
101581, -3.83536529E+00, 4.84670729E-01, 2.56869784E+01
101582, -3.38358772E+00, 5.79873339E-01, 2.56869784E+01
101583, -3.37747920E+00, 5.83764106E-01, 2.54709825E+01
101584, -3.82967770E+00, 4.87240493E-01, 2.54709835E+01
101585, -3.84065652E+00, 4.82143924E-01, 2.59029846E+01
101586, -3.38932085E+00, 5.76014057E-01, 2.59029836E+01
101587, -3.38358772E+00, 5.79873339E-01, 2.56869784E+01
101588, -3.83536529E+00, 4.84670729E-01, 2.56869784E+01
101589, -3.84557200E+00, 4.79648903E-01, 2.61189995E+01
101590, -3.39469934E+00, 5.72173894E-01, 2.61189995E+01
101591, -3.38932085E+00, 5.76014057E-01, 2.59029836E+01
101592, -3.84065652E+00, 4.82143924E-01, 2.59029846E+01
101593, -3.85010064E+00, 4.77187127E-01, 2.63347387E+01
101594, -3.39971137E+00, 5.68356470E-01, 2.63347387E+01
101595, -3.39469934E+00, 5.72173894E-01, 2.61189995E+01
101596, -3.84557200E+00, 4.79648903E-01, 2.61189995E+01
101597, -3.85424173E+00, 4.74760816E-01, 2.65504856E+01
101598, -3.40435695E+00, 5.64562708E-01, 2.65504847E+01
101599, -3.39971137E+00, 5.68356470E-01, 2.63347387E+01
101600, -3.85010064E+00, 4.77187127E-01, 2.63347387E+01
101601, -3.85801291E+00, 4.72369864E-01, 2.67662392E+01
101602, -3.40865326E+00, 5.60791284E-01, 2.67662392E+01
101603, -3.40435695E+00, 5.64562708E-01, 2.65504847E+01
101604, -3.85424173E+00, 4.74760816E-01, 2.65504856E+01
101605, -3.86143207E+00, 4.70014155E-01, 2.69820004E+01
101606, -3.41261756E+00, 5.57040959E-01, 2.69820004E+01
101607, -3.40865326E+00, 5.60791284E-01, 2.67662392E+01
101608, -3.85801291E+00, 4.72369864E-01, 2.67662392E+01
101609, -3.86449945E+00, 4.67683315E-01, 2.71979932E+01
101610, -3.41624939E+00, 5.53310365E-01, 2.71979923E+01
101611, -3.41261756E+00, 5.57040959E-01, 2.69820004E+01
101612, -3.86143207E+00, 4.70014155E-01, 2.69820004E+01
101613, -3.86720407E+00, 4.65382516E-01, 2.74139909E+01
101614, -3.41953802E+00, 5.49603180E-01, 2.74139900E+01
101615, -3.41624939E+00, 5.53310365E-01, 2.71979923E+01
101616, -3.86449945E+00, 4.67683315E-01, 2.71979932E+01
101617, -3.86955786E+00, 4.63127718E-01, 2.76299953E+01
101618, -3.42249739E+00, 5.45913905E-01, 2.76299944E+01
101619, -3.41953802E+00, 5.49603180E-01, 2.74139900E+01
101620, -3.86720407E+00, 4.65382516E-01, 2.74139909E+01
101621, -3.87157237E+00, 4.60934877E-01, 2.78460007E+01
101622, -3.42514122E+00, 5.42237103E-01, 2.78460007E+01
101623, -3.42249739E+00, 5.45913905E-01, 2.76299944E+01
101624, -3.86955786E+00, 4.63127718E-01, 2.76299953E+01
101625, -3.87323976E+00, 4.58828807E-01, 2.80619974E+01
101626, -3.42746485E+00, 5.38576231E-01, 2.80619955E+01
101627, -3.42514122E+00, 5.42237103E-01, 2.78460007E+01
101628, -3.87157237E+00, 4.60934877E-01, 2.78460007E+01
101629, -3.87455773E+00, 4.56794098E-01, 2.82779961E+01
101630, -3.42946386E+00, 5.34932450E-01, 2.82779942E+01
101631, -3.42746485E+00, 5.38576231E-01, 2.80619955E+01
101632, -3.87323976E+00, 4.58828807E-01, 2.80619974E+01
101633, -3.87554539E+00, 4.54786569E-01, 2.84939966E+01
101634, -3.43115222E+00, 5.31297386E-01, 2.84939966E+01
101635, -3.42946386E+00, 5.34932450E-01, 2.82779942E+01
101636, -3.87455773E+00, 4.56794098E-01, 2.82779961E+01
101637, -3.87622141E+00, 4.52762008E-01, 2.87099991E+01
101638, -3.43254423E+00, 5.27662784E-01, 2.87099991E+01
101639, -3.43115222E+00, 5.31297386E-01, 2.84939966E+01
101640, -3.87554539E+00, 4.54786569E-01, 2.84939966E+01
101641, -3.87658000E+00, 4.50734437E-01, 2.89257507E+01
101642, -3.43363463E+00, 5.24030328E-01, 2.89257498E+01
101643, -3.43254423E+00, 5.27662784E-01, 2.87099991E+01
101644, -3.87622141E+00, 4.52762008E-01, 2.87099991E+01
101645, -3.87661517E+00, 4.48717237E-01, 2.91415005E+01
101646, -3.43442011E+00, 5.20400286E-01, 2.91414986E+01
101647, -3.43363463E+00, 5.24030328E-01, 2.89257498E+01
101648, -3.87658000E+00, 4.50734437E-01, 2.89257507E+01
101649, -3.87634588E+00, 4.46672515E-01, 2.93572502E+01
101650, -3.43491423E+00, 5.16775101E-01, 2.93572492E+01
101651, -3.43442011E+00, 5.20400286E-01, 2.91414986E+01
101652, -3.87661517E+00, 4.48717237E-01, 2.91415005E+01
101653, -3.87579084E+00, 4.44562345E-01, 2.95730000E+01
101654, -3.43512976E+00, 5.13157323E-01, 2.95730000E+01
101655, -3.43491423E+00, 5.16775101E-01, 2.93572492E+01
101656, -3.87634588E+00, 4.46672515E-01, 2.93572502E+01
101657, -3.87494659E+00, 4.42355603E-01, 2.97890024E+01
101658, -3.43506145E+00, 5.09539753E-01, 2.97890006E+01
101659, -3.43512976E+00, 5.13157323E-01, 2.95730000E+01
101660, -3.87579084E+00, 4.44562345E-01, 2.95730000E+01
101661, -3.87380600E+00, 4.40081135E-01, 3.00050039E+01
101662, -3.43470478E+00, 5.05926520E-01, 3.00050011E+01
101663, -3.43506145E+00, 5.09539753E-01, 2.97890006E+01
101664, -3.87494659E+00, 4.42355603E-01, 2.97890024E+01
101665, -3.87237978E+00, 4.37783376E-01, 3.02210026E+01
101666, -3.43407428E+00, 5.02324343E-01, 3.02210007E+01
101667, -3.43470478E+00, 5.05926520E-01, 3.00050011E+01
101668, -3.87380600E+00, 4.40081135E-01, 3.00050039E+01
101669, -3.87067854E+00, 4.35506731E-01, 3.04370003E+01
101670, -3.43318450E+00, 4.98739943E-01, 3.04370003E+01
101671, -3.43407428E+00, 5.02324343E-01, 3.02210007E+01
101672, -3.87237978E+00, 4.37783376E-01, 3.02210026E+01
101673, -3.86869502E+00, 4.33264464E-01, 3.06530046E+01
101674, -3.43202901E+00, 4.95179400E-01, 3.06530027E+01
101675, -3.43318450E+00, 4.98739943E-01, 3.04370003E+01
101676, -3.87067854E+00, 4.35506731E-01, 3.04370003E+01
101677, -3.86642695E+00, 4.31032449E-01, 3.08690062E+01
101678, -3.43060338E+00, 4.91637692E-01, 3.08690033E+01
101679, -3.43202901E+00, 4.95179400E-01, 3.06530027E+01
101680, -3.86869502E+00, 4.33264464E-01, 3.06530046E+01
101681, -3.86389220E+00, 4.28798854E-01, 3.10850048E+01
101682, -3.42892551E+00, 4.88104924E-01, 3.10850029E+01
101683, -3.43060338E+00, 4.91637692E-01, 3.08690033E+01
101684, -3.86642695E+00, 4.31032449E-01, 3.08690062E+01
101685, -3.86110913E+00, 4.26551878E-01, 3.13010006E+01
101686, -3.42701256E+00, 4.84571055E-01, 3.13010006E+01
101687, -3.42892551E+00, 4.88104924E-01, 3.10850029E+01
101688, -3.86389220E+00, 4.28798854E-01, 3.10850048E+01
101689, -3.85807514E+00, 4.24296901E-01, 3.15167561E+01
101690, -3.42486155E+00, 4.81042609E-01, 3.15167542E+01
101691, -3.42701256E+00, 4.84571055E-01, 3.13010006E+01
101692, -3.86110913E+00, 4.26551878E-01, 3.13010006E+01
101693, -3.85478127E+00, 4.22035753E-01, 3.17325077E+01
101694, -3.42246461E+00, 4.77519274E-01, 3.17325048E+01
101695, -3.42486155E+00, 4.81042609E-01, 3.15167542E+01
101696, -3.85807514E+00, 4.24296901E-01, 3.15167561E+01
101697, -3.85124540E+00, 4.19758663E-01, 3.19482555E+01
101698, -3.41983890E+00, 4.73992497E-01, 3.19482546E+01
101699, -3.42246461E+00, 4.77519274E-01, 3.17325048E+01
101700, -3.85478127E+00, 4.22035753E-01, 3.17325077E+01
101701, -3.84748555E+00, 4.17455957E-01, 3.21640015E+01
101702, -3.41700172E+00, 4.70453874E-01, 3.21640015E+01
101703, -3.41983890E+00, 4.73992497E-01, 3.19482546E+01
101704, -3.85124540E+00, 4.19758663E-01, 3.19482555E+01
101705, -3.84349132E+00, 4.15119454E-01, 3.23800068E+01
101706, -3.41394448E+00, 4.66894433E-01, 3.23800049E+01
101707, -3.41700172E+00, 4.70453874E-01, 3.21640015E+01
101708, -3.84748555E+00, 4.17455957E-01, 3.21640015E+01
101709, -3.83926117E+00, 4.12758052E-01, 3.25960083E+01
101710, -3.41066432E+00, 4.63323802E-01, 3.25960064E+01
101711, -3.41394448E+00, 4.66894433E-01, 3.23800049E+01
101712, -3.84349132E+00, 4.15119454E-01, 3.23800068E+01
101713, -3.83481109E+00, 4.10379096E-01, 3.28120079E+01
101714, -3.40717674E+00, 4.59748388E-01, 3.28120041E+01
101715, -3.41066432E+00, 4.63323802E-01, 3.25960064E+01
101716, -3.83926117E+00, 4.12758052E-01, 3.25960083E+01
101717, -3.83015740E+00, 4.07989949E-01, 3.30279999E+01
101718, -3.40349687E+00, 4.56174582E-01, 3.30279999E+01
101719, -3.40717674E+00, 4.59748388E-01, 3.28120041E+01
101720, -3.83481109E+00, 4.10379096E-01, 3.28120079E+01
101721, -3.82530498E+00, 4.05486703E-01, 3.32440071E+01
101722, -3.39961946E+00, 4.52599407E-01, 3.32440052E+01
101723, -3.40349687E+00, 4.56174582E-01, 3.30279999E+01
101724, -3.83015740E+00, 4.07989949E-01, 3.30279999E+01
101725, -3.82024478E+00, 4.02900859E-01, 3.34600086E+01
101726, -3.39553964E+00, 4.49021145E-01, 3.34600067E+01
101727, -3.39961946E+00, 4.52599407E-01, 3.32440052E+01
101728, -3.82530498E+00, 4.05486703E-01, 3.32440071E+01
101729, -3.81497276E+00, 4.00442287E-01, 3.36760063E+01
101730, -3.39127266E+00, 4.45447594E-01, 3.36760044E+01
101731, -3.39553964E+00, 4.49021145E-01, 3.34600067E+01
101732, -3.82024478E+00, 4.02900859E-01, 3.34600086E+01
101733, -3.80948400E+00, 3.98320884E-01, 3.38919983E+01
101734, -3.38683390E+00, 4.41886455E-01, 3.38919983E+01
101735, -3.39127266E+00, 4.45447594E-01, 3.36760044E+01
101736, -3.81497276E+00, 4.00442287E-01, 3.36760063E+01
101737, -3.80374527E+00, 3.96864622E-01, 3.41077595E+01
101738, -3.38222313E+00, 4.38339561E-01, 3.41077557E+01
101739, -3.38683390E+00, 4.41886455E-01, 3.38919983E+01
101740, -3.80948400E+00, 3.98320884E-01, 3.38919983E+01
101741, -3.79776656E+00, 3.95869046E-01, 3.43235073E+01
101742, -3.37743068E+00, 4.34800282E-01, 3.43235073E+01
101743, -3.38222313E+00, 4.38339561E-01, 3.41077557E+01
101744, -3.80374527E+00, 3.96864622E-01, 3.41077595E+01
101745, -3.79162455E+00, 3.94751683E-01, 3.45392532E+01
101746, -3.37247193E+00, 4.31275338E-01, 3.45392551E+01
101747, -3.37743068E+00, 4.34800282E-01, 3.43235073E+01
101748, -3.79776656E+00, 3.95869046E-01, 3.43235073E+01
101749, -3.78539658E+00, 3.92930061E-01, 3.47550011E+01
101750, -3.36736214E+00, 4.27771538E-01, 3.47550011E+01
101751, -3.37247193E+00, 4.31275338E-01, 3.45392551E+01
101752, -3.79162455E+00, 3.94751683E-01, 3.45392532E+01
101753, -3.77910376E+00, 3.90102819E-01, 3.49710102E+01
101754, -3.36209274E+00, 4.24282893E-01, 3.49710045E+01
101755, -3.36736214E+00, 4.27771538E-01, 3.47550011E+01
101756, -3.78539658E+00, 3.92930061E-01, 3.47550011E+01
101757, -3.77270985E+00, 3.86630535E-01, 3.51870136E+01
101758, -3.35666383E+00, 4.20811251E-01, 3.51870060E+01
101759, -3.36209274E+00, 4.24282893E-01, 3.49710045E+01
101760, -3.77910376E+00, 3.90102819E-01, 3.49710102E+01
101761, -3.76618290E+00, 3.82914543E-01, 3.54030094E+01
101762, -3.35108459E+00, 4.17362377E-01, 3.54030056E+01
101763, -3.35666383E+00, 4.20811251E-01, 3.51870060E+01
101764, -3.77270985E+00, 3.86630535E-01, 3.51870136E+01
101765, -3.75949168E+00, 3.79356101E-01, 3.56189995E+01
101766, -3.34536457E+00, 4.13942039E-01, 3.56189995E+01
101767, -3.35108459E+00, 4.17362377E-01, 3.54030056E+01
101768, -3.76618290E+00, 3.82914543E-01, 3.54030094E+01
101769, -3.75263250E+00, 3.76025751E-01, 3.58350067E+01
101770, -3.33950794E+00, 4.10554900E-01, 3.58350067E+01
101771, -3.34536457E+00, 4.13942039E-01, 3.56189995E+01
101772, -3.75949168E+00, 3.79356101E-01, 3.56189995E+01
101773, -3.74562097E+00, 3.72721866E-01, 3.60510101E+01
101774, -3.33350909E+00, 4.07197014E-01, 3.60510082E+01
101775, -3.33950794E+00, 4.10554900E-01, 3.58350067E+01
101776, -3.75263250E+00, 3.76025751E-01, 3.58350067E+01
101777, -3.73845208E+00, 3.69436398E-01, 3.62670078E+01
101778, -3.32736230E+00, 4.03860495E-01, 3.62670059E+01
101779, -3.33350909E+00, 4.07197014E-01, 3.60510082E+01
101780, -3.74562097E+00, 3.72721866E-01, 3.60510101E+01
101781, -3.73112011E+00, 3.66161376E-01, 3.64830017E+01
101782, -3.32106137E+00, 4.00537521E-01, 3.64830017E+01
101783, -3.32736230E+00, 4.03860495E-01, 3.62670059E+01
101784, -3.73845208E+00, 3.69436398E-01, 3.62670078E+01
101785, -3.72363603E+00, 3.62905234E-01, 3.66987572E+01
101786, -3.31461621E+00, 3.97236362E-01, 3.66987572E+01
101787, -3.32106137E+00, 4.00537521E-01, 3.64830017E+01
101788, -3.73112011E+00, 3.66161376E-01, 3.64830017E+01
101789, -3.71599364E+00, 3.59666347E-01, 3.69145126E+01
101790, -3.30802191E+00, 3.93955320E-01, 3.69145088E+01
101791, -3.31461621E+00, 3.97236362E-01, 3.66987572E+01
101792, -3.72363603E+00, 3.62905234E-01, 3.66987572E+01
101793, -3.70818543E+00, 3.56432154E-01, 3.71302605E+01
101794, -3.30127037E+00, 3.90682414E-01, 3.71302567E+01
101795, -3.30802191E+00, 3.93955320E-01, 3.69145088E+01
101796, -3.71599364E+00, 3.59666347E-01, 3.69145126E+01
101797, -3.70020449E+00, 3.53190094E-01, 3.73460007E+01
101798, -3.29435396E+00, 3.87405559E-01, 3.73460007E+01
101799, -3.30127037E+00, 3.90682414E-01, 3.71302567E+01
101800, -3.70818543E+00, 3.56432154E-01, 3.71302605E+01
101801, -3.69204175E+00, 3.49938110E-01, 3.75620117E+01
101802, -3.28726530E+00, 3.84122759E-01, 3.75620079E+01
101803, -3.29435396E+00, 3.87405559E-01, 3.73460007E+01
101804, -3.70020449E+00, 3.53190094E-01, 3.73460007E+01
101805, -3.68370998E+00, 3.46685201E-01, 3.77780151E+01
101806, -3.28001582E+00, 3.80842775E-01, 3.77780113E+01
101807, -3.28726530E+00, 3.84122759E-01, 3.75620079E+01
101808, -3.69204175E+00, 3.49938110E-01, 3.75620117E+01
101809, -3.67520368E+00, 3.43423038E-01, 3.79940109E+01
101810, -3.27259945E+00, 3.77557486E-01, 3.79940090E+01
101811, -3.28001582E+00, 3.80842775E-01, 3.77780113E+01
101812, -3.68370998E+00, 3.46685201E-01, 3.77780151E+01
101813, -3.66651702E+00, 3.40143233E-01, 3.82099991E+01
101814, -3.26500952E+00, 3.74258742E-01, 3.82099991E+01
101815, -3.27259945E+00, 3.77557486E-01, 3.79940090E+01
101816, -3.67520368E+00, 3.43423038E-01, 3.79940109E+01
101817, -3.65764046E+00, 3.36839199E-01, 3.84260101E+01
101818, -3.25723720E+00, 3.70940715E-01, 3.84260101E+01
101819, -3.26500952E+00, 3.74258742E-01, 3.82099991E+01
101820, -3.66651702E+00, 3.40143233E-01, 3.82099991E+01
101821, -3.64858056E+00, 3.33517149E-01, 3.86420135E+01
101822, -3.24928867E+00, 3.67609233E-01, 3.86420135E+01
101823, -3.25723720E+00, 3.70940715E-01, 3.84260101E+01
101824, -3.65764046E+00, 3.36839199E-01, 3.84260101E+01
101825, -3.63935232E+00, 3.30186606E-01, 3.88580093E+01
101826, -3.24117839E+00, 3.64272505E-01, 3.88580093E+01
101827, -3.24928867E+00, 3.67609233E-01, 3.86420135E+01
101828, -3.64858056E+00, 3.33517149E-01, 3.86420135E+01
101829, -3.62997055E+00, 3.26856970E-01, 3.90740013E+01
101830, -3.23292089E+00, 3.60938758E-01, 3.90740013E+01
101831, -3.24117839E+00, 3.64272505E-01, 3.88580093E+01
101832, -3.63935232E+00, 3.30186606E-01, 3.88580093E+01
101833, -3.62043095E+00, 3.23533132E-01, 3.92897606E+01
101834, -3.22451079E+00, 3.57612655E-01, 3.92897568E+01
101835, -3.23292089E+00, 3.60938758E-01, 3.90740013E+01
101836, -3.62997055E+00, 3.26856970E-01, 3.90740013E+01
101837, -3.61072207E+00, 3.20206970E-01, 3.95055122E+01
101838, -3.21593761E+00, 3.54286656E-01, 3.95055103E+01
101839, -3.22451079E+00, 3.57612655E-01, 3.92897568E+01
101840, -3.62043095E+00, 3.23533132E-01, 3.92897606E+01
101841, -3.60087764E+00, 3.16878825E-01, 3.97212601E+01
101842, -3.20723486E+00, 3.50961178E-01, 3.97212563E+01
101843, -3.21593761E+00, 3.54286656E-01, 3.95055103E+01
101844, -3.61072207E+00, 3.20206970E-01, 3.95055122E+01
101845, -3.59093106E+00, 3.13549027E-01, 3.99370003E+01
101846, -3.19843626E+00, 3.47636596E-01, 3.99370003E+01
101847, -3.20723486E+00, 3.50961178E-01, 3.97212563E+01
101848, -3.60087764E+00, 3.16878825E-01, 3.97212601E+01
101849, -3.58085882E+00, 3.10214311E-01, 4.01530075E+01
101850, -3.18951940E+00, 3.44309613E-01, 4.01530075E+01
101851, -3.19843626E+00, 3.47636596E-01, 3.99370003E+01
101852, -3.59093106E+00, 3.13549027E-01, 3.99370003E+01
101853, -3.57066202E+00, 3.06878433E-01, 4.03690071E+01
101854, -3.18048429E+00, 3.40983867E-01, 4.03690071E+01
101855, -3.18951940E+00, 3.44309613E-01, 4.01530075E+01
101856, -3.58085882E+00, 3.10214311E-01, 4.01530075E+01
101857, -3.56037378E+00, 3.03539604E-01, 4.05850067E+01
101858, -3.17136359E+00, 3.37657958E-01, 4.05850048E+01
101859, -3.18048429E+00, 3.40983867E-01, 4.03690071E+01
101860, -3.57066202E+00, 3.06878433E-01, 4.03690071E+01
101861, -3.55002725E+00, 3.00196126E-01, 4.08009987E+01
101862, -3.16219020E+00, 3.34330395E-01, 4.08009987E+01
101863, -3.17136359E+00, 3.37657958E-01, 4.05850048E+01
101864, -3.56037378E+00, 3.03539604E-01, 4.05850067E+01
101865, -3.53961384E+00, 2.96847582E-01, 4.10170059E+01
101866, -3.15295625E+00, 3.31000880E-01, 4.10170021E+01
101867, -3.16219020E+00, 3.34330395E-01, 4.08009987E+01
101868, -3.55002725E+00, 3.00196126E-01, 4.08009987E+01
101869, -3.52912235E+00, 2.93495044E-01, 4.12330055E+01
101870, -3.14364982E+00, 3.27670261E-01, 4.12330055E+01
101871, -3.15295625E+00, 3.31000880E-01, 4.10170021E+01
101872, -3.53961384E+00, 2.96847582E-01, 4.10170059E+01
101873, -3.51857924E+00, 2.90138259E-01, 4.14490032E+01
101874, -3.13429749E+00, 3.24338362E-01, 4.14490013E+01
101875, -3.14364982E+00, 3.27670261E-01, 4.12330055E+01
101876, -3.52912235E+00, 2.93495044E-01, 4.12330055E+01
101877, -3.50801123E+00, 2.86776997E-01, 4.16650009E+01
101878, -3.12492573E+00, 3.21005032E-01, 4.16650009E+01
101879, -3.13429749E+00, 3.24338362E-01, 4.14490013E+01
101880, -3.51857924E+00, 2.90138259E-01, 4.14490032E+01
101881, -3.49955213E+00, 2.84086681E-01, 4.18376007E+01
101882, -3.11742664E+00, 3.18339452E-01, 4.18376007E+01
101883, -3.12492573E+00, 3.21005032E-01, 4.16650009E+01
101884, -3.50801123E+00, 2.86776997E-01, 4.16650009E+01
101885, -3.49107087E+00, 2.81392492E-01, 4.20102043E+01
101886, -3.10990893E+00, 3.15672070E-01, 4.20102005E+01
101887, -3.11742664E+00, 3.18339452E-01, 4.18376007E+01
101888, -3.49955213E+00, 2.84086681E-01, 4.18376007E+01
101889, -3.48256826E+00, 2.78696038E-01, 4.21828041E+01
101890, -3.10237348E+00, 3.13004285E-01, 4.21828022E+01
101891, -3.10990893E+00, 3.15672070E-01, 4.20102005E+01
101892, -3.49107087E+00, 2.81392492E-01, 4.20102043E+01
101893, -3.47404540E+00, 2.75998920E-01, 4.23554020E+01
101894, -3.09482110E+00, 3.10337394E-01, 4.23554001E+01
101895, -3.10237348E+00, 3.13004285E-01, 4.21828022E+01
101896, -3.48256826E+00, 2.78696038E-01, 4.21828041E+01
101897, -3.46550309E+00, 2.73302771E-01, 4.25279999E+01
101898, -3.08725226E+00, 3.07672724E-01, 4.25279999E+01
101899, -3.09482110E+00, 3.10337394E-01, 4.23554001E+01
101900, -3.47404540E+00, 2.75998920E-01, 4.23554020E+01
101901, -3.45693290E+00, 2.70603426E-01, 4.27008018E+01
101902, -3.07966017E+00, 3.05006430E-01, 4.27008018E+01
101903, -3.08725226E+00, 3.07672724E-01, 4.25279999E+01
101904, -3.46550309E+00, 2.73302771E-01, 4.25279999E+01
101905, -3.44834435E+00, 2.67903022E-01, 4.28736038E+01
101906, -3.07205319E+00, 3.02340694E-01, 4.28736019E+01
101907, -3.07966017E+00, 3.05006430E-01, 4.27008018E+01
101908, -3.45693290E+00, 2.70603426E-01, 4.27008018E+01
101909, -3.43973482E+00, 2.65202969E-01, 4.30464020E+01
101910, -3.06442833E+00, 2.99676701E-01, 4.30464020E+01
101911, -3.07205319E+00, 3.02340694E-01, 4.28736019E+01
101912, -3.44834435E+00, 2.67903022E-01, 4.28736038E+01
101913, -3.43110168E+00, 2.62504712E-01, 4.32192039E+01
101914, -3.05678284E+00, 2.97015608E-01, 4.32192001E+01
101915, -3.06442833E+00, 2.99676701E-01, 4.30464020E+01
101916, -3.43973482E+00, 2.65202969E-01, 4.30464020E+01
101917, -3.42244232E+00, 2.59809703E-01, 4.33919983E+01
101918, -3.04911411E+00, 2.94358589E-01, 4.33919983E+01
101919, -3.05678284E+00, 2.97015608E-01, 4.32192001E+01
101920, -3.43110168E+00, 2.62504712E-01, 4.32192039E+01
101921, -3.41375804E+00, 2.57116958E-01, 4.35648041E+01
101922, -3.04142344E+00, 2.91704871E-01, 4.35648003E+01
101923, -3.04911411E+00, 2.94358589E-01, 4.33919983E+01
101924, -3.42244232E+00, 2.59809703E-01, 4.33919983E+01
101925, -3.40505075E+00, 2.54425630E-01, 4.37376022E+01
101926, -3.03371310E+00, 2.89053731E-01, 4.37376022E+01
101927, -3.04142344E+00, 2.91704871E-01, 4.35648003E+01
101928, -3.41375804E+00, 2.57116958E-01, 4.35648041E+01
101929, -3.39631820E+00, 2.51737006E-01, 4.39104042E+01
101930, -3.02598024E+00, 2.86406234E-01, 4.39104042E+01
101931, -3.03371310E+00, 2.89053731E-01, 4.37376022E+01
101932, -3.40505075E+00, 2.54425630E-01, 4.37376022E+01
101933, -3.38755798E+00, 2.49052405E-01, 4.40832024E+01
101934, -3.01822257E+00, 2.83763461E-01, 4.40832024E+01
101935, -3.02598024E+00, 2.86406234E-01, 4.39104042E+01
101936, -3.39631820E+00, 2.51737006E-01, 4.39104042E+01
101937, -3.37876773E+00, 2.46373087E-01, 4.42560005E+01
101938, -3.01043725E+00, 2.81126462E-01, 4.42560005E+01
101939, -3.01822257E+00, 2.83763461E-01, 4.40832024E+01
101940, -3.38755798E+00, 2.49052405E-01, 4.40832024E+01
101941, -3.36995756E+00, 2.43702620E-01, 4.44286041E+01
101942, -3.00263381E+00, 2.78498717E-01, 4.44286022E+01
101943, -3.01043725E+00, 2.81126462E-01, 4.42560005E+01
101944, -3.37876773E+00, 2.46373087E-01, 4.42560005E+01
101945, -3.36111915E+00, 2.41037100E-01, 4.46012039E+01
101946, -2.99480509E+00, 2.75876530E-01, 4.46012039E+01
101947, -3.00263381E+00, 2.78498717E-01, 4.44286022E+01
101948, -3.36995756E+00, 2.43702620E-01, 4.44286041E+01
101949, -3.35225237E+00, 2.38375753E-01, 4.47738037E+01
101950, -2.98695040E+00, 2.73259148E-01, 4.47738037E+01
101951, -2.99480509E+00, 2.75876530E-01, 4.46012039E+01
101952, -3.36111915E+00, 2.41037100E-01, 4.46012039E+01
101953, -3.34335625E+00, 2.35717758E-01, 4.49464035E+01
101954, -2.97906887E+00, 2.70645790E-01, 4.49464035E+01
101955, -2.98695040E+00, 2.73259148E-01, 4.47738037E+01
101956, -3.35225237E+00, 2.38375753E-01, 4.47738037E+01
101957, -3.33443057E+00, 2.33062312E-01, 4.51189995E+01
101958, -2.97116029E+00, 2.68035666E-01, 4.51189995E+01
101959, -2.97906887E+00, 2.70645790E-01, 4.49464035E+01
101960, -3.34335625E+00, 2.35717758E-01, 4.49464035E+01
101961, -3.32546294E+00, 2.30405674E-01, 4.52918015E+01
101962, -2.96321345E+00, 2.65425168E-01, 4.52918015E+01
101963, -2.97116029E+00, 2.68035666E-01, 4.51189995E+01
101964, -3.33443057E+00, 2.33062312E-01, 4.51189995E+01
101965, -3.31646431E+00, 2.27751583E-01, 4.54646034E+01
101966, -2.95523822E+00, 2.62817964E-01, 4.54646034E+01
101967, -2.96321345E+00, 2.65425168E-01, 4.52918015E+01
101968, -3.32546294E+00, 2.30405674E-01, 4.52918015E+01
101969, -3.30743718E+00, 2.25100860E-01, 4.56374054E+01
101970, -2.94723690E+00, 2.60214754E-01, 4.56374016E+01
101971, -2.95523822E+00, 2.62817964E-01, 4.54646034E+01
101972, -3.31646431E+00, 2.27751583E-01, 4.54646034E+01
101973, -3.29838348E+00, 2.22454369E-01, 4.58102036E+01
101974, -2.93921125E+00, 2.57616297E-01, 4.58102036E+01
101975, -2.94723690E+00, 2.60214754E-01, 4.56374016E+01
101976, -3.30743718E+00, 2.25100860E-01, 4.56374054E+01
101977, -3.28930545E+00, 2.19812960E-01, 4.59830017E+01
101978, -2.93116343E+00, 2.55023293E-01, 4.59830017E+01
101979, -2.93921125E+00, 2.57616297E-01, 4.58102036E+01
101980, -3.29838348E+00, 2.22454369E-01, 4.58102036E+01
101981, -3.28020120E+00, 2.17175402E-01, 4.61558037E+01
101982, -2.92309176E+00, 2.52434694E-01, 4.61558037E+01
101983, -2.93116343E+00, 2.55023293E-01, 4.59830017E+01
101984, -3.28930545E+00, 2.19812960E-01, 4.59830017E+01
101985, -3.27106964E+00, 2.14541234E-01, 4.63286018E+01
101986, -2.91499496E+00, 2.49850072E-01, 4.63286018E+01
101987, -2.92309176E+00, 2.52434694E-01, 4.61558037E+01
101988, -3.28020120E+00, 2.17175402E-01, 4.61558037E+01
101989, -3.26191330E+00, 2.11912133E-01, 4.65014038E+01
101990, -2.90687549E+00, 2.47270919E-01, 4.65014038E+01
101991, -2.91499496E+00, 2.49850072E-01, 4.63286018E+01
101992, -3.27106964E+00, 2.14541234E-01, 4.63286018E+01
101993, -3.25273430E+00, 2.09289774E-01, 4.66742020E+01
101994, -2.89873541E+00, 2.44698726E-01, 4.66742020E+01
101995, -2.90687549E+00, 2.47270919E-01, 4.65014038E+01
101996, -3.26191330E+00, 2.11912133E-01, 4.65014038E+01
101997, -3.24353504E+00, 2.06675835E-01, 4.68470001E+01
101998, -2.89057696E+00, 2.42134937E-01, 4.68470001E+01
101999, -2.89873541E+00, 2.44698726E-01, 4.66742020E+01
102000, -3.25273430E+00, 2.09289774E-01, 4.66742020E+01
102001, -3.23432458E+00, 2.04072543E-01, 4.70196037E+01
102002, -2.88240790E+00, 2.39581839E-01, 4.70195999E+01
102003, -2.89057696E+00, 2.42134937E-01, 4.68470001E+01
102004, -3.24353504E+00, 2.06675835E-01, 4.68470001E+01
102005, -3.22509074E+00, 2.01475829E-01, 4.71922035E+01
102006, -2.87421775E+00, 2.37035536E-01, 4.71922035E+01
102007, -2.88240790E+00, 2.39581839E-01, 4.70195999E+01
102008, -3.23432458E+00, 2.04072543E-01, 4.70196037E+01
102009, -3.21583604E+00, 1.98886752E-01, 4.73648033E+01
102010, -2.86600852E+00, 2.34496958E-01, 4.73648033E+01
102011, -2.87421775E+00, 2.37035536E-01, 4.71922035E+01
102012, -3.22509074E+00, 2.01475829E-01, 4.71922035E+01
102013, -3.20656288E+00, 1.96306355E-01, 4.75374031E+01
102014, -2.85778260E+00, 2.31967025E-01, 4.75374012E+01
102015, -2.86600852E+00, 2.34496958E-01, 4.73648033E+01
102016, -3.21583604E+00, 1.98886752E-01, 4.73648033E+01
102017, -3.19727349E+00, 1.93735689E-01, 4.77099991E+01
102018, -2.84954178E+00, 2.29446657E-01, 4.77099991E+01
102019, -2.85778260E+00, 2.31967025E-01, 4.75374012E+01
102020, -3.20656288E+00, 1.96306355E-01, 4.75374031E+01
102021, -3.18795562E+00, 1.91172272E-01, 4.78828011E+01
102022, -2.84127558E+00, 2.26933398E-01, 4.78828011E+01
102023, -2.84954178E+00, 2.29446657E-01, 4.77099991E+01
102024, -3.19727349E+00, 1.93735689E-01, 4.77099991E+01
102025, -3.17861879E+00, 1.88618436E-01, 4.80556030E+01
102026, -2.83299220E+00, 2.24429585E-01, 4.80555992E+01
102027, -2.84127558E+00, 2.26933398E-01, 4.78828011E+01
102028, -3.18795562E+00, 1.91172272E-01, 4.78828011E+01
102029, -3.16926467E+00, 1.86073385E-01, 4.82284012E+01
102030, -2.82469320E+00, 2.21934513E-01, 4.82284012E+01
102031, -2.83299220E+00, 2.24429585E-01, 4.80555992E+01
102032, -3.17861879E+00, 1.88618436E-01, 4.80556030E+01
102033, -3.15989530E+00, 1.83536328E-01, 4.84012032E+01
102034, -2.81638014E+00, 2.19447434E-01, 4.84011993E+01
102035, -2.82469320E+00, 2.21934513E-01, 4.82284012E+01
102036, -3.16926467E+00, 1.86073385E-01, 4.82284012E+01
102037, -3.15051222E+00, 1.81006469E-01, 4.85740013E+01
102038, -2.80805469E+00, 2.16967635E-01, 4.85740013E+01
102039, -2.81638014E+00, 2.19447434E-01, 4.84011993E+01
102040, -3.15989530E+00, 1.83536328E-01, 4.84012032E+01
102041, -3.14111460E+00, 1.78482979E-01, 4.87467995E+01
102042, -2.79971636E+00, 2.14494422E-01, 4.87467995E+01
102043, -2.80805469E+00, 2.16967635E-01, 4.85740013E+01
102044, -3.15051222E+00, 1.81006469E-01, 4.85740013E+01
102045, -3.13170135E+00, 1.75966449E-01, 4.89196014E+01
102046, -2.79136396E+00, 2.12028287E-01, 4.89196014E+01
102047, -2.79971636E+00, 2.14494422E-01, 4.87467995E+01
102048, -3.14111460E+00, 1.78482979E-01, 4.87467995E+01
102049, -3.12227368E+00, 1.73458039E-01, 4.90924034E+01
102050, -2.78299844E+00, 2.09570267E-01, 4.90923996E+01
102051, -2.79136396E+00, 2.12028287E-01, 4.89196014E+01
102052, -3.13170135E+00, 1.75966449E-01, 4.89196014E+01
102053, -3.11283279E+00, 1.70958891E-01, 4.92652016E+01
102054, -2.77462089E+00, 2.07121357E-01, 4.92651997E+01
102055, -2.78299844E+00, 2.09570267E-01, 4.90923996E+01
102056, -3.12227368E+00, 1.73458039E-01, 4.90924034E+01
102057, -3.10337972E+00, 1.68470167E-01, 4.94379997E+01
102058, -2.76623213E+00, 2.04682574E-01, 4.94379997E+01
102059, -2.77462089E+00, 2.07121357E-01, 4.92651997E+01
102060, -3.11283279E+00, 1.70958891E-01, 4.92652016E+01
102061, -3.09392465E+00, 1.65993802E-01, 4.96105995E+01
102062, -2.75784171E+00, 2.02255935E-01, 4.96105995E+01
102063, -2.76623213E+00, 2.04682574E-01, 4.94379997E+01
102064, -3.10337972E+00, 1.68470167E-01, 4.94379997E+01
102065, -3.08445609E+00, 1.63526163E-01, 4.97831993E+01
102066, -2.74943865E+00, 1.99837938E-01, 4.97831993E+01
102067, -2.75784171E+00, 2.02255935E-01, 4.96105995E+01
102068, -3.09392465E+00, 1.65993802E-01, 4.96105995E+01
102069, -3.07497489E+00, 1.61068610E-01, 4.99557991E+01
102070, -2.74102414E+00, 1.97429776E-01, 4.99557991E+01
102071, -2.74943865E+00, 1.99837938E-01, 4.97831993E+01
102072, -3.08445609E+00, 1.63526163E-01, 4.97831993E+01
102073, -3.06548262E+00, 1.58622466E-01, 5.01283989E+01
102074, -2.73259938E+00, 1.95032627E-01, 5.01283989E+01
102075, -2.74102414E+00, 1.97429776E-01, 4.99557991E+01
102076, -3.07497489E+00, 1.61068610E-01, 4.99557991E+01
102077, -3.05598021E+00, 1.56189062E-01, 5.03009987E+01
102078, -2.72416532E+00, 1.92647643E-01, 5.03009987E+01
102079, -2.73259938E+00, 1.95032627E-01, 5.01283989E+01
102080, -3.06548262E+00, 1.58622466E-01, 5.01283989E+01
102081, -3.04645574E+00, 1.53765470E-01, 5.04738007E+01
102082, -2.71571124E+00, 1.90272018E-01, 5.04737988E+01
102083, -2.72416532E+00, 1.92647643E-01, 5.03009987E+01
102084, -3.05598021E+00, 1.56189062E-01, 5.03009987E+01
102085, -3.03691936E+00, 1.51353620E-01, 5.06465988E+01
102086, -2.70724654E+00, 1.87907710E-01, 5.06465988E+01
102087, -2.71571124E+00, 1.90272018E-01, 5.04737988E+01
102088, -3.04645574E+00, 1.53765470E-01, 5.04738007E+01
102089, -3.02737260E+00, 1.48953736E-01, 5.08194008E+01
102090, -2.69877195E+00, 1.85554885E-01, 5.08193989E+01
102091, -2.70724654E+00, 1.87907710E-01, 5.06465988E+01
102092, -3.03691936E+00, 1.51353620E-01, 5.06465988E+01
102093, -3.01781666E+00, 1.46565992E-01, 5.09921989E+01
102094, -2.69028890E+00, 1.83213711E-01, 5.09921989E+01
102095, -2.69877195E+00, 1.85554885E-01, 5.08193989E+01
102096, -3.02737260E+00, 1.48953736E-01, 5.08194008E+01
102097, -3.00825286E+00, 1.44190568E-01, 5.11650009E+01
102098, -2.68179858E+00, 1.80884339E-01, 5.11650009E+01
102099, -2.69028890E+00, 1.83213711E-01, 5.09921989E+01
102100, -3.01781666E+00, 1.46565992E-01, 5.09921989E+01
102101, -2.99868024E+00, 1.41827781E-01, 5.13377991E+01
102102, -2.67329991E+00, 1.78567067E-01, 5.13377991E+01
102103, -2.68179858E+00, 1.80884339E-01, 5.11650009E+01
102104, -3.00825286E+00, 1.44190568E-01, 5.11650009E+01
102105, -2.98909772E+00, 1.39477458E-01, 5.15105991E+01
102106, -2.66479218E+00, 1.76261738E-01, 5.15105991E+01
102107, -2.67329991E+00, 1.78567067E-01, 5.13377991E+01
102108, -2.99868024E+00, 1.41827781E-01, 5.13377991E+01
102109, -2.97950697E+00, 1.37139205E-01, 5.16833992E+01
102110, -2.65627670E+00, 1.73968002E-01, 5.16833992E+01
102111, -2.66479218E+00, 1.76261738E-01, 5.15105991E+01
102112, -2.98909772E+00, 1.39477458E-01, 5.15105991E+01
102113, -2.96990979E+00, 1.34812597E-01, 5.18561993E+01
102114, -2.64775503E+00, 1.71685465E-01, 5.18561993E+01
102115, -2.65627670E+00, 1.73968002E-01, 5.16833992E+01
102116, -2.97950697E+00, 1.37139205E-01, 5.16833992E+01
102117, -2.96030736E+00, 1.32497199E-01, 5.20289993E+01
102118, -2.63922858E+00, 1.69413753E-01, 5.20289993E+01
102119, -2.64775503E+00, 1.71685465E-01, 5.18561993E+01
102120, -2.96990979E+00, 1.34812597E-01, 5.18561993E+01
102121, -2.95071030E+00, 1.30195003E-01, 5.22015991E+01
102122, -2.63070643E+00, 1.67154878E-01, 5.22015991E+01
102123, -2.63922858E+00, 1.69413753E-01, 5.20289993E+01
102124, -2.96030736E+00, 1.32497199E-01, 5.20289993E+01
102125, -2.94110596E+00, 1.27903581E-01, 5.23741989E+01
102126, -2.62217761E+00, 1.64906420E-01, 5.23741989E+01
102127, -2.63070643E+00, 1.67154878E-01, 5.22015991E+01
102128, -2.95071030E+00, 1.30195003E-01, 5.22015991E+01
102129, -2.93149614E+00, 1.25623990E-01, 5.25467987E+01
102130, -2.61364353E+00, 1.62669338E-01, 5.25467987E+01
102131, -2.62217761E+00, 1.64906420E-01, 5.23741989E+01
102132, -2.94110596E+00, 1.27903581E-01, 5.23741989E+01
102133, -2.92188239E+00, 1.23357278E-01, 5.27193985E+01
102134, -2.60510576E+00, 1.60444565E-01, 5.27193985E+01
102135, -2.61364353E+00, 1.62669338E-01, 5.25467987E+01
102136, -2.93149614E+00, 1.25623990E-01, 5.25467987E+01
102137, -2.91226649E+00, 1.21104486E-01, 5.28919983E+01
102138, -2.59656549E+00, 1.58233035E-01, 5.28919983E+01
102139, -2.60510576E+00, 1.60444565E-01, 5.27193985E+01
102140, -2.92188239E+00, 1.23357278E-01, 5.27193985E+01
102141, -2.90263605E+00, 1.18862446E-01, 5.30648003E+01
102142, -2.58801222E+00, 1.56031683E-01, 5.30648003E+01
102143, -2.59656549E+00, 1.58233035E-01, 5.28919983E+01
102144, -2.91226649E+00, 1.21104486E-01, 5.28919983E+01
102145, -2.89300143E+00, 1.16633046E-01, 5.32375984E+01
102146, -2.57945454E+00, 1.53842423E-01, 5.32375984E+01
102147, -2.58801222E+00, 1.56031683E-01, 5.30648003E+01
102148, -2.90263605E+00, 1.18862446E-01, 5.30648003E+01
102149, -2.88336372E+00, 1.14417218E-01, 5.34104004E+01
102150, -2.57089424E+00, 1.51666093E-01, 5.34104004E+01
102151, -2.57945454E+00, 1.53842423E-01, 5.32375984E+01
102152, -2.89300143E+00, 1.16633046E-01, 5.32375984E+01
102153, -2.87372506E+00, 1.12215880E-01, 5.35831985E+01
102154, -2.56233252E+00, 1.49503522E-01, 5.35831985E+01
102155, -2.57089424E+00, 1.51666093E-01, 5.34104004E+01
102156, -2.88336372E+00, 1.14417218E-01, 5.34104004E+01
102157, -2.86408687E+00, 1.10029943E-01, 5.37560005E+01
102158, -2.55377090E+00, 1.47355508E-01, 5.37560005E+01
102159, -2.56233252E+00, 1.49503522E-01, 5.35831985E+01
102160, -2.87372506E+00, 1.12215880E-01, 5.35831985E+01
102161, -2.85444820E+00, 1.07859894E-01, 5.39287987E+01
102162, -2.54520869E+00, 1.45222503E-01, 5.39287987E+01
102163, -2.55377090E+00, 1.47355508E-01, 5.37560005E+01
102164, -2.86408687E+00, 1.10029943E-01, 5.37560005E+01
102165, -2.84480810E+00, 1.05705105E-01, 5.41016006E+01
102166, -2.53664458E+00, 1.43103935E-01, 5.41016006E+01
102167, -2.54520869E+00, 1.45222503E-01, 5.39287987E+01
102168, -2.85444820E+00, 1.07859894E-01, 5.39287987E+01
102169, -2.83516788E+00, 1.03564881E-01, 5.42743988E+01
102170, -2.52808010E+00, 1.40999186E-01, 5.42743988E+01
102171, -2.53664458E+00, 1.43103935E-01, 5.41016006E+01
102172, -2.84480810E+00, 1.05705105E-01, 5.41016006E+01
102173, -2.82552898E+00, 1.01438511E-01, 5.44472008E+01
102174, -2.51951659E+00, 1.38907626E-01, 5.44472008E+01
102175, -2.52808010E+00, 1.40999186E-01, 5.42743988E+01
102176, -2.83516788E+00, 1.03564881E-01, 5.42743988E+01
102177, -2.81589269E+00, 9.93253069E-02, 5.46199989E+01
102178, -2.51095522E+00, 1.36828616E-01, 5.46199989E+01
102179, -2.51951659E+00, 1.38907626E-01, 5.44472008E+01
102180, -2.82552898E+00, 1.01438511E-01, 5.44472008E+01
102181, -2.80787361E+00, 9.75762009E-02, 5.47638321E+01
102182, -2.50383019E+00, 1.35107555E-01, 5.47638321E+01
102183, -2.51095522E+00, 1.36828616E-01, 5.46199989E+01
102184, -2.81589269E+00, 9.93253069E-02, 5.46199989E+01
102185, -2.79985523E+00, 9.58363713E-02, 5.49076653E+01
102186, -2.49670589E+00, 1.33395348E-01, 5.49076653E+01
102187, -2.50383019E+00, 1.35107555E-01, 5.47638321E+01
102188, -2.80787361E+00, 9.75762009E-02, 5.47638321E+01
102189, -2.79183817E+00, 9.41059849E-02, 5.50514984E+01
102190, -2.48958242E+00, 1.31692123E-01, 5.50514984E+01
102191, -2.49670589E+00, 1.33395348E-01, 5.49076653E+01
102192, -2.79985523E+00, 9.58363713E-02, 5.49076653E+01
102193, -2.78382266E+00, 9.23852100E-02, 5.51953335E+01
102194, -2.48246026E+00, 1.29998040E-01, 5.51953316E+01
102195, -2.48958242E+00, 1.31692123E-01, 5.50514984E+01
102196, -2.79183817E+00, 9.41059849E-02, 5.50514984E+01
102197, -2.77580929E+00, 9.06742105E-02, 5.53391666E+01
102198, -2.47533965E+00, 1.28313229E-01, 5.53391666E+01
102199, -2.48246026E+00, 1.29998040E-01, 5.51953316E+01
102200, -2.78382266E+00, 9.23852100E-02, 5.51953335E+01
102201, -2.76779854E+00, 8.89731796E-02, 5.54830017E+01
102202, -2.46822131E+00, 1.26637857E-01, 5.54830017E+01
102203, -2.47533965E+00, 1.28313229E-01, 5.53391666E+01
102204, -2.77580929E+00, 9.06742105E-02, 5.53391666E+01
102205, -2.75978065E+00, 8.72796474E-02, 5.56270008E+01
102206, -2.46109641E+00, 1.24969546E-01, 5.56269989E+01
102207, -2.46822131E+00, 1.26637857E-01, 5.54830017E+01
102208, -2.76779854E+00, 8.89731796E-02, 5.54830017E+01
102209, -2.75176466E+00, 8.55953620E-02, 5.57709999E+01
102210, -2.45397282E+00, 1.23310052E-01, 5.57709999E+01
102211, -2.46109641E+00, 1.24969546E-01, 5.56269989E+01
102212, -2.75978065E+00, 8.72796474E-02, 5.56270008E+01
102213, -2.74375057E+00, 8.39208846E-02, 5.59150009E+01
102214, -2.44685102E+00, 1.21659860E-01, 5.59150009E+01
102215, -2.45397282E+00, 1.23310052E-01, 5.57709999E+01
102216, -2.75176466E+00, 8.55953620E-02, 5.57709999E+01
102217, -2.73573912E+00, 8.22567716E-02, 5.60590000E+01
102218, -2.43973112E+00, 1.20019466E-01, 5.60590000E+01
102219, -2.44685102E+00, 1.21659860E-01, 5.59150009E+01
102220, -2.74375057E+00, 8.39208846E-02, 5.59150009E+01
102221, -2.72773052E+00, 8.06035884E-02, 5.62030010E+01
102222, -2.43261361E+00, 1.18389346E-01, 5.62029991E+01
102223, -2.43973112E+00, 1.20019466E-01, 5.60590000E+01
102224, -2.73573912E+00, 8.22567716E-02, 5.60590000E+01
102225, -2.71972525E+00, 7.89618939E-02, 5.63470001E+01
102226, -2.42549884E+00, 1.16770010E-01, 5.63470001E+01
102227, -2.43261361E+00, 1.18389346E-01, 5.62029991E+01
102228, -2.72773052E+00, 8.06035884E-02, 5.62030010E+01
102229, -2.71172297E+00, 7.73313455E-02, 5.64910011E+01
102230, -2.41838670E+00, 1.15161162E-01, 5.64910011E+01
102231, -2.42549884E+00, 1.16770010E-01, 5.63470001E+01
102232, -2.71972525E+00, 7.89618939E-02, 5.63470001E+01
102233, -2.70372319E+00, 7.57114459E-02, 5.66350002E+01
102234, -2.41127634E+00, 1.13562349E-01, 5.66350002E+01
102235, -2.41838670E+00, 1.15161162E-01, 5.64910011E+01
102236, -2.71172297E+00, 7.73313455E-02, 5.64910011E+01
102237, -2.69572616E+00, 7.41024744E-02, 5.67789993E+01
102238, -2.40416836E+00, 1.11973822E-01, 5.67789993E+01
102239, -2.41127634E+00, 1.13562349E-01, 5.66350002E+01
102240, -2.70372319E+00, 7.57114459E-02, 5.66350002E+01
102241, -2.68773270E+00, 7.25047086E-02, 5.69230003E+01
102242, -2.39706313E+00, 1.10395823E-01, 5.69230003E+01
102243, -2.40416836E+00, 1.11973822E-01, 5.67789993E+01
102244, -2.69572616E+00, 7.41024744E-02, 5.67789993E+01
102245, -2.67974269E+00, 7.09184409E-02, 5.70670013E+01
102246, -2.38996113E+00, 1.08828597E-01, 5.70670013E+01
102247, -2.39706313E+00, 1.10395823E-01, 5.69230003E+01
102248, -2.68773270E+00, 7.25047086E-02, 5.69230003E+01
102249, -2.67175699E+00, 6.93439711E-02, 5.72109985E+01
102250, -2.38286256E+00, 1.07272413E-01, 5.72109985E+01
102251, -2.38996113E+00, 1.08828597E-01, 5.70670013E+01
102252, -2.67974269E+00, 7.09184409E-02, 5.70670013E+01
102253, -2.66378439E+00, 6.77834339E-02, 5.73548336E+01
102254, -2.37577534E+00, 1.05729356E-01, 5.73548336E+01
102255, -2.38286256E+00, 1.07272413E-01, 5.72109985E+01
102256, -2.67175699E+00, 6.93439711E-02, 5.72109985E+01
102257, -2.65581501E+00, 6.62348810E-02, 5.74986668E+01
102258, -2.36869085E+00, 1.04197510E-01, 5.74986668E+01
102259, -2.37577534E+00, 1.05729356E-01, 5.73548336E+01
102260, -2.66378439E+00, 6.77834339E-02, 5.73548336E+01
102261, -2.64784944E+00, 6.46977946E-02, 5.76425018E+01
102262, -2.36160946E+00, 1.02676414E-01, 5.76424999E+01
102263, -2.36869085E+00, 1.04197510E-01, 5.74986668E+01
102264, -2.65581501E+00, 6.62348810E-02, 5.74986668E+01
102265, -2.63988781E+00, 6.31716792E-02, 5.77863350E+01
102266, -2.35453141E+00, 1.01165622E-01, 5.77863331E+01
102267, -2.36160946E+00, 1.02676414E-01, 5.76424999E+01
102268, -2.64784944E+00, 6.46977946E-02, 5.76425018E+01
102269, -2.63193070E+00, 6.16560392E-02, 5.79301682E+01
102270, -2.34745717E+00, 9.96646884E-02, 5.79301682E+01
102271, -2.35453141E+00, 1.01165622E-01, 5.77863331E+01
102272, -2.63988781E+00, 6.31716792E-02, 5.77863350E+01
102273, -2.62397849E+00, 6.01503961E-02, 5.80740013E+01
102274, -2.34038722E+00, 9.81731714E-02, 5.80740013E+01
102275, -2.34745717E+00, 9.96646884E-02, 5.79301682E+01
102276, -2.63193070E+00, 6.16560392E-02, 5.79301682E+01
102277, -2.61602164E+00, 5.86528946E-02, 5.82180004E+01
102278, -2.33331275E+00, 9.66892762E-02, 5.82180004E+01
102279, -2.34038722E+00, 9.81731714E-02, 5.80740013E+01
102280, -2.62397849E+00, 6.01503961E-02, 5.80740013E+01
102281, -2.60806882E+00, 5.71656990E-02, 5.83620014E+01
102282, -2.32624197E+00, 9.52150787E-02, 5.83619995E+01
102283, -2.33331275E+00, 9.66892762E-02, 5.82180004E+01
102284, -2.61602164E+00, 5.86528946E-02, 5.82180004E+01
102285, -2.60012055E+00, 5.56890070E-02, 5.85060005E+01
102286, -2.31917489E+00, 9.37507637E-02, 5.85060005E+01
102287, -2.32624197E+00, 9.52150787E-02, 5.83619995E+01
102288, -2.60806882E+00, 5.71656990E-02, 5.83620014E+01
102289, -2.59217703E+00, 5.42230177E-02, 5.86500015E+01
102290, -2.31211174E+00, 9.22965109E-02, 5.86499996E+01
102291, -2.31917489E+00, 9.37507637E-02, 5.85060005E+01
102292, -2.60012055E+00, 5.56890070E-02, 5.85060005E+01
102293, -2.58423865E+00, 5.27679399E-02, 5.87940006E+01
102294, -2.30505311E+00, 9.08525064E-02, 5.87940006E+01
102295, -2.31211174E+00, 9.22965109E-02, 5.86499996E+01
102296, -2.59217703E+00, 5.42230177E-02, 5.86500015E+01
102297, -2.57630575E+00, 5.13240006E-02, 5.89379997E+01
102298, -2.29799914E+00, 8.94189401E-02, 5.89379997E+01
102299, -2.30505311E+00, 9.08525064E-02, 5.87940006E+01
102300, -2.58423865E+00, 5.27679399E-02, 5.87940006E+01
102301, -2.56837773E+00, 4.98909037E-02, 5.90820026E+01
102302, -2.29094935E+00, 8.79955666E-02, 5.90820007E+01
102303, -2.29799914E+00, 8.94189401E-02, 5.89379997E+01
102304, -2.57630575E+00, 5.13240006E-02, 5.89379997E+01
102305, -2.56045461E+00, 4.84684724E-02, 5.92260017E+01
102306, -2.28390372E+00, 8.65822153E-02, 5.92259998E+01
102307, -2.29094935E+00, 8.79955666E-02, 5.90820007E+01
102308, -2.56837773E+00, 4.98909037E-02, 5.90820026E+01
102309, -2.55253672E+00, 4.70569543E-02, 5.93699989E+01
102310, -2.27686250E+00, 8.51791072E-02, 5.93699989E+01
102311, -2.28390372E+00, 8.65822153E-02, 5.92259998E+01
102312, -2.56045461E+00, 4.84684724E-02, 5.92260017E+01
102313, -2.54462409E+00, 4.56566094E-02, 5.95139999E+01
102314, -2.26982582E+00, 8.37864823E-02, 5.95139999E+01
102315, -2.27686250E+00, 8.51791072E-02, 5.93699989E+01
102316, -2.55253672E+00, 4.70569543E-02, 5.93699989E+01
102317, -2.53671718E+00, 4.42677103E-02, 5.96580009E+01
102318, -2.26279401E+00, 8.24045728E-02, 5.96580009E+01
102319, -2.26982582E+00, 8.37864823E-02, 5.95139999E+01
102320, -2.54462409E+00, 4.56566094E-02, 5.95139999E+01
102321, -2.52881646E+00, 4.28905348E-02, 5.98019981E+01
102322, -2.25576746E+00, 8.10336302E-02, 5.98019981E+01
102323, -2.26279401E+00, 8.24045728E-02, 5.96580009E+01
102324, -2.53671718E+00, 4.42677103E-02, 5.96580009E+01
102325, -2.52093041E+00, 4.15267283E-02, 5.99458332E+01
102326, -2.24875378E+00, 7.96752891E-02, 5.99458332E+01
102327, -2.25576746E+00, 8.10336302E-02, 5.98019981E+01
102328, -2.52881646E+00, 4.28905348E-02, 5.98019981E+01
102329, -2.51304984E+00, 4.01745289E-02, 6.00896664E+01
102330, -2.24174488E+00, 7.83278140E-02, 6.00896664E+01
102331, -2.24875378E+00, 7.96752891E-02, 5.99458332E+01
102332, -2.52093041E+00, 4.15267283E-02, 5.99458332E+01
102333, -2.50517499E+00, 3.88337448E-02, 6.02334995E+01
102334, -2.23474073E+00, 7.69910293E-02, 6.02335014E+01
102335, -2.24174488E+00, 7.83278140E-02, 6.00896664E+01
102336, -2.51304984E+00, 4.01745289E-02, 6.00896664E+01
102337, -2.49730610E+00, 3.75042027E-02, 6.03773327E+01
102338, -2.22774172E+00, 7.56647792E-02, 6.03773346E+01
102339, -2.23474073E+00, 7.69910293E-02, 6.02335014E+01
102340, -2.50517499E+00, 3.88337448E-02, 6.02334995E+01
102341, -2.48944354E+00, 3.61857368E-02, 6.05211678E+01
102342, -2.22074843E+00, 7.43488966E-02, 6.05211678E+01
102343, -2.22774172E+00, 7.56647792E-02, 6.03773346E+01
102344, -2.49730610E+00, 3.75042027E-02, 6.03773327E+01
102345, -2.48158777E+00, 3.48781850E-02, 6.06650009E+01
102346, -2.21376074E+00, 7.30432440E-02, 6.06650009E+01
102347, -2.22074843E+00, 7.43488966E-02, 6.05211678E+01
102348, -2.48944354E+00, 3.61857368E-02, 6.05211678E+01
102349, -2.47372914E+00, 3.35802604E-02, 6.08090000E+01
102350, -2.20677030E+00, 7.17465133E-02, 6.08090000E+01
102351, -2.21376074E+00, 7.30432440E-02, 6.06650009E+01
102352, -2.48158777E+00, 3.48781850E-02, 6.06650009E+01
102353, -2.46587669E+00, 3.22936717E-02, 6.09529991E+01
102354, -2.19978524E+00, 7.04604145E-02, 6.09530010E+01
102355, -2.20677030E+00, 7.17465133E-02, 6.08090000E+01
102356, -2.47372914E+00, 3.35802604E-02, 6.08090000E+01
102357, -2.45803047E+00, 3.10181807E-02, 6.10970001E+01
102358, -2.19280552E+00, 6.91847112E-02, 6.10970001E+01
102359, -2.19978524E+00, 7.04604145E-02, 6.09530010E+01
102360, -2.46587669E+00, 3.22936717E-02, 6.09529991E+01
102361, -2.45019102E+00, 2.97535681E-02, 6.12409973E+01
102362, -2.18583178E+00, 6.79191779E-02, 6.12410011E+01
102363, -2.19280552E+00, 6.91847112E-02, 6.10970001E+01
102364, -2.45803047E+00, 3.10181807E-02, 6.10970001E+01
102365, -2.44235850E+00, 2.84996098E-02, 6.13849983E+01
102366, -2.17886400E+00, 6.66635893E-02, 6.13850002E+01
102367, -2.18583178E+00, 6.79191779E-02, 6.12410011E+01
102368, -2.45019102E+00, 2.97535681E-02, 6.12409973E+01
102369, -2.43453348E+00, 2.72561005E-02, 6.15289993E+01
102370, -2.17190266E+00, 6.54177349E-02, 6.15289993E+01
102371, -2.17886400E+00, 6.66635893E-02, 6.13850002E+01
102372, -2.44235850E+00, 2.84996098E-02, 6.13849983E+01
102373, -2.42671561E+00, 2.60230293E-02, 6.16730003E+01
102374, -2.16494751E+00, 6.41816109E-02, 6.16730022E+01
102375, -2.17190266E+00, 6.54177349E-02, 6.15289993E+01
102376, -2.43453348E+00, 2.72561005E-02, 6.15289993E+01
102377, -2.41890443E+00, 2.48005763E-02, 6.18169975E+01
102378, -2.15799809E+00, 6.29554298E-02, 6.18170013E+01
102379, -2.16494751E+00, 6.41816109E-02, 6.16730022E+01
102380, -2.42671561E+00, 2.60230293E-02, 6.16730003E+01
102381, -2.41110026E+00, 2.35887812E-02, 6.19609985E+01
102382, -2.15105474E+00, 6.17391933E-02, 6.19609985E+01
102383, -2.15799809E+00, 6.29554298E-02, 6.18170013E+01
102384, -2.41890443E+00, 2.48005763E-02, 6.18169975E+01
102385, -2.40330351E+00, 2.23876909E-02, 6.21049995E+01
102386, -2.14411796E+00, 6.05329126E-02, 6.21050015E+01
102387, -2.15105474E+00, 6.17391933E-02, 6.19609985E+01
102388, -2.41110026E+00, 2.35887812E-02, 6.19609985E+01
102389, -2.39551437E+00, 2.11973547E-02, 6.22490005E+01
102390, -2.13718784E+00, 5.93366027E-02, 6.22490024E+01
102391, -2.14411796E+00, 6.05329126E-02, 6.21050015E+01
102392, -2.40330351E+00, 2.23876909E-02, 6.21049995E+01
102393, -2.38773334E+00, 2.00178349E-02, 6.23930016E+01
102394, -2.13026476E+00, 5.81502915E-02, 6.23930016E+01
102395, -2.13718784E+00, 5.93366027E-02, 6.22490024E+01
102396, -2.39551437E+00, 2.11973547E-02, 6.22490005E+01
102397, -2.37996912E+00, 1.88504907E-02, 6.25368347E+01
102398, -2.12335634E+00, 5.69753461E-02, 6.25368347E+01
102399, -2.13026476E+00, 5.81502915E-02, 6.23930016E+01
102400, -2.38773334E+00, 2.00178349E-02, 6.23930016E+01
102401, -2.37221229E+00, 1.76939203E-02, 6.26806641E+01
102402, -2.11645437E+00, 5.58104179E-02, 6.26806679E+01
102403, -2.12335634E+00, 5.69753461E-02, 6.25368347E+01
102404, -2.37996912E+00, 1.88504907E-02, 6.25368347E+01
102405, -2.36446321E+00, 1.65480780E-02, 6.28244972E+01
102406, -2.10955894E+00, 5.46554392E-02, 6.28245010E+01
102407, -2.11645437E+00, 5.58104179E-02, 6.26806679E+01
102408, -2.37221229E+00, 1.76939203E-02, 6.26806641E+01
102409, -2.35672212E+00, 1.54129365E-02, 6.29683304E+01
102410, -2.10267078E+00, 5.35103464E-02, 6.29683342E+01
102411, -2.10955894E+00, 5.46554392E-02, 6.28245010E+01
102412, -2.36446321E+00, 1.65480780E-02, 6.28244972E+01
102413, -2.34898948E+00, 1.42884618E-02, 6.31121674E+01
102414, -2.09578967E+00, 5.23750885E-02, 6.31121674E+01
102415, -2.10267078E+00, 5.35103464E-02, 6.29683342E+01
102416, -2.35672212E+00, 1.54129365E-02, 6.29683304E+01
102417, -2.34126544E+00, 1.31746397E-02, 6.32560005E+01
102418, -2.08891642E+00, 5.12496242E-02, 6.32560005E+01
102419, -2.09578967E+00, 5.23750885E-02, 6.31121674E+01
102420, -2.34898948E+00, 1.42884618E-02, 6.31121674E+01
102421, -2.33354104E+00, 1.20704252E-02, 6.33999996E+01
102422, -2.08204233E+00, 5.01328763E-02, 6.33999996E+01
102423, -2.08891642E+00, 5.12496242E-02, 6.32560005E+01
102424, -2.34126544E+00, 1.31746397E-02, 6.32560005E+01
102425, -2.32582462E+00, 1.09771913E-02, 6.35439987E+01
102426, -2.07517552E+00, 4.90262695E-02, 6.35440006E+01
102427, -2.08204233E+00, 5.01328763E-02, 6.33999996E+01
102428, -2.33354104E+00, 1.20704252E-02, 6.33999996E+01
102429, -2.31811678E+00, 9.89464867E-03, 6.36879997E+01
102430, -2.06831586E+00, 4.79295207E-02, 6.36879997E+01
102431, -2.07517552E+00, 4.90262695E-02, 6.35440006E+01
102432, -2.32582462E+00, 1.09771913E-02, 6.35439987E+01
102433, -2.31041754E+00, 8.82252820E-03, 6.38319969E+01
102434, -2.06146371E+00, 4.68423534E-02, 6.38320007E+01
102435, -2.06831586E+00, 4.79295207E-02, 6.36879997E+01
102436, -2.31811678E+00, 9.89464867E-03, 6.36879997E+01
102437, -2.30272746E+00, 7.76055290E-03, 6.39759998E+01
102438, -2.05461979E+00, 4.57645058E-02, 6.39759998E+01
102439, -2.06146371E+00, 4.68423534E-02, 6.38320007E+01
102440, -2.31041754E+00, 8.82252820E-03, 6.38319969E+01
102441, -2.29504668E+00, 6.70846550E-03, 6.41200027E+01
102442, -2.04778397E+00, 4.46957256E-02, 6.41200027E+01
102443, -2.05461979E+00, 4.57645058E-02, 6.39759998E+01
102444, -2.30272746E+00, 7.76055290E-03, 6.39759998E+01
102445, -2.28847062E+00, 5.81459959E-03, 6.42434311E+01
102446, -2.04193104E+00, 4.37868908E-02, 6.42434311E+01
102447, -2.04778397E+00, 4.46957256E-02, 6.41200027E+01
102448, -2.29504668E+00, 6.70846550E-03, 6.41200027E+01
102449, -2.28190088E+00, 4.92825406E-03, 6.43668594E+01
102450, -2.03608370E+00, 4.28849784E-02, 6.43668594E+01
102451, -2.04193104E+00, 4.37868908E-02, 6.42434311E+01
102452, -2.28847062E+00, 5.81459959E-03, 6.42434311E+01
102453, -2.27533770E+00, 4.04937425E-03, 6.44902878E+01
102454, -2.03024208E+00, 4.19899337E-02, 6.44902878E+01
102455, -2.03608370E+00, 4.28849784E-02, 6.43668594E+01
102456, -2.28190088E+00, 4.92825406E-03, 6.43668594E+01
102457, -2.26878142E+00, 3.17792360E-03, 6.46137161E+01
102458, -2.02440655E+00, 4.11016997E-02, 6.46137161E+01
102459, -2.03024208E+00, 4.19899337E-02, 6.44902878E+01
102460, -2.27533770E+00, 4.04937425E-03, 6.44902878E+01
102461, -2.26223207E+00, 2.31386395E-03, 6.47371445E+01
102462, -2.01857710E+00, 4.02202234E-02, 6.47371445E+01
102463, -2.02440655E+00, 4.11016997E-02, 6.46137161E+01
102464, -2.26878142E+00, 3.17792360E-03, 6.46137161E+01
102465, -2.25568998E+00, 1.45715245E-03, 6.48605728E+01
102466, -2.01275384E+00, 3.93454669E-02, 6.48605728E+01
102467, -2.01857710E+00, 4.02202234E-02, 6.47371445E+01
102468, -2.26223207E+00, 2.31386395E-03, 6.47371445E+01
102469, -2.24915528E+00, 6.07765250E-04, 6.49840012E+01
102470, -2.00693738E+00, 3.84773915E-02, 6.49840012E+01
102471, -2.01275384E+00, 3.93454669E-02, 6.48605728E+01
102472, -2.25568998E+00, 1.45715245E-03, 6.48605728E+01
102473, -2.24263537E+00, -2.33297200E-04, 6.51072845E+01
102474, -2.00113368E+00, 3.76170157E-02, 6.51072845E+01
102475, -2.00693738E+00, 3.84773915E-02, 6.49840012E+01
102476, -2.24915528E+00, 6.07765250E-04, 6.49840012E+01
102477, -2.23612237E+00, -1.06696645E-03, 6.52305679E+01
102478, -1.99533611E+00, 3.67634138E-02, 6.52305717E+01
102479, -2.00113368E+00, 3.76170157E-02, 6.51072845E+01
102480, -2.24263537E+00, -2.33297200E-04, 6.51072845E+01
102481, -2.22961640E+00, -1.89328285E-03, 6.53538589E+01
102482, -1.98954475E+00, 3.59165445E-02, 6.53538589E+01
102483, -1.99533611E+00, 3.67634138E-02, 6.52305717E+01
102484, -2.23612237E+00, -1.06696645E-03, 6.52305679E+01
102485, -2.22311771E+00, -2.71226885E-03, 6.54771423E+01
102486, -1.98375970E+00, 3.50763640E-02, 6.54771423E+01
102487, -1.98954475E+00, 3.59165445E-02, 6.53538589E+01
102488, -2.22961640E+00, -1.89328285E-03, 6.53538589E+01
102489, -2.21662652E+00, -3.52395046E-03, 6.56004257E+01
102490, -1.97798115E+00, 3.42428372E-02, 6.56004257E+01
102491, -1.98375970E+00, 3.50763640E-02, 6.54771423E+01
102492, -2.22311771E+00, -2.71226885E-03, 6.54771423E+01
102493, -2.21014297E+00, -4.32835753E-03, 6.57237167E+01
102494, -1.97220939E+00, 3.34159318E-02, 6.57237167E+01
102495, -1.97798115E+00, 3.42428372E-02, 6.56004257E+01
102496, -2.21662652E+00, -3.52395046E-03, 6.56004257E+01
102497, -2.20366741E+00, -5.12550004E-03, 6.58470001E+01
102498, -1.96644467E+00, 3.25956256E-02, 6.58470001E+01
102499, -1.97220939E+00, 3.34159318E-02, 6.57237167E+01
102500, -2.21014297E+00, -4.32835753E-03, 6.57237167E+01
102501, -2.19719183E+00, -5.91621804E-03, 6.59704285E+01
102502, -1.96067983E+00, 3.17810411E-02, 6.59704285E+01
102503, -1.96644467E+00, 3.25956256E-02, 6.58470001E+01
102504, -2.20366741E+00, -5.12550004E-03, 6.58470001E+01
102505, -2.19072390E+00, -6.69952506E-03, 6.60938568E+01
102506, -1.95492154E+00, 3.09732058E-02, 6.60938568E+01
102507, -1.96067983E+00, 3.17810411E-02, 6.59704285E+01
102508, -2.19719183E+00, -5.91621804E-03, 6.59704285E+01
102509, -2.18426334E+00, -7.47550724E-03, 6.62172852E+01
102510, -1.94916981E+00, 3.01720393E-02, 6.62172852E+01
102511, -1.95492154E+00, 3.09732058E-02, 6.60938568E+01
102512, -2.19072390E+00, -6.69952506E-03, 6.60938568E+01
102513, -2.17781055E+00, -8.24423343E-03, 6.63407135E+01
102514, -1.94342494E+00, 2.93774733E-02, 6.63407135E+01
102515, -1.94916981E+00, 3.01720393E-02, 6.62172852E+01
102516, -2.18426334E+00, -7.47550724E-03, 6.62172852E+01
102517, -2.17136574E+00, -9.00577603E-03, 6.64641418E+01
102518, -1.93768698E+00, 2.85894375E-02, 6.64641418E+01
102519, -1.94342494E+00, 2.93774733E-02, 6.63407135E+01
102520, -2.17781055E+00, -8.24423343E-03, 6.63407135E+01
102521, -2.16492916E+00, -9.76020867E-03, 6.65875702E+01
102522, -1.93195629E+00, 2.78078604E-02, 6.65875702E+01
102523, -1.93768698E+00, 2.85894375E-02, 6.64641418E+01
102524, -2.17136574E+00, -9.00577603E-03, 6.64641418E+01
102525, -2.15850091E+00, -1.05075903E-02, 6.67109985E+01
102526, -1.92623294E+00, 2.70326850E-02, 6.67109985E+01
102527, -1.93195629E+00, 2.78078604E-02, 6.65875702E+01
102528, -2.16492916E+00, -9.76020867E-03, 6.65875702E+01
102529, -2.15208101E+00, -1.12477271E-02, 6.68344269E+01
102530, -1.92051679E+00, 2.62640778E-02, 6.68344269E+01
102531, -1.92623294E+00, 2.70326850E-02, 6.67109985E+01
102532, -2.15850091E+00, -1.05075903E-02, 6.67109985E+01
102533, -2.14566887E+00, -1.19804832E-02, 6.69578552E+01
102534, -1.91480750E+00, 2.55021639E-02, 6.69578552E+01
102535, -1.92051679E+00, 2.62640778E-02, 6.68344269E+01
102536, -2.15208101E+00, -1.12477271E-02, 6.68344269E+01
102537, -2.13926470E+00, -1.27060477E-02, 6.70812836E+01
102538, -1.90910530E+00, 2.47467816E-02, 6.70812836E+01
102539, -1.91480750E+00, 2.55021639E-02, 6.69578552E+01
102540, -2.14566887E+00, -1.19804832E-02, 6.69578552E+01
102541, -2.13286888E+00, -1.34245919E-02, 6.72047119E+01
102542, -1.90341032E+00, 2.39977837E-02, 6.72047119E+01
102543, -1.90910530E+00, 2.47467816E-02, 6.70812836E+01
102544, -2.13926470E+00, -1.27060477E-02, 6.70812836E+01
102545, -2.12648153E+00, -1.41362938E-02, 6.73281403E+01
102546, -1.89772278E+00, 2.32550212E-02, 6.73281403E+01
102547, -1.90341032E+00, 2.39977837E-02, 6.72047119E+01
102548, -2.13286888E+00, -1.34245919E-02, 6.72047119E+01
102549, -2.12010276E+00, -1.48413311E-02, 6.74515686E+01
102550, -1.89204282E+00, 2.25183396E-02, 6.74515686E+01
102551, -1.89772278E+00, 2.32550212E-02, 6.73281403E+01
102552, -2.12648153E+00, -1.41362938E-02, 6.73281403E+01
102553, -2.11373305E+00, -1.55398650E-02, 6.75749969E+01
102554, -1.88637084E+00, 2.17876009E-02, 6.75749969E+01
102555, -1.89204282E+00, 2.25183396E-02, 6.74515686E+01
102556, -2.12010276E+00, -1.48413311E-02, 6.74515686E+01
102557, -2.10737932E+00, -1.62308642E-02, 6.76982880E+01
102558, -1.88071298E+00, 2.10638421E-02, 6.76982880E+01
102559, -1.88637084E+00, 2.17876009E-02, 6.75749969E+01
102560, -2.11373305E+00, -1.55398650E-02, 6.75749969E+01
102561, -2.10103392E+00, -1.69148960E-02, 6.78215714E+01
102562, -1.87506247E+00, 2.03464196E-02, 6.78215714E+01
102563, -1.88071298E+00, 2.10638421E-02, 6.76982880E+01
102564, -2.10737932E+00, -1.62308642E-02, 6.76982880E+01
102565, -2.09469711E+00, -1.75921579E-02, 6.79448547E+01
102566, -1.86941946E+00, 1.96351666E-02, 6.79448547E+01
102567, -1.87506247E+00, 2.03464196E-02, 6.78215714E+01
102568, -2.10103392E+00, -1.69148960E-02, 6.78215714E+01
102569, -2.08836889E+00, -1.82628329E-02, 6.80681381E+01
102570, -1.86378407E+00, 1.89299304E-02, 6.80681381E+01
102571, -1.86941946E+00, 1.96351666E-02, 6.79448547E+01
102572, -2.09469711E+00, -1.75921579E-02, 6.79448547E+01
102573, -2.08204973E+00, -1.89271064E-02, 6.81914291E+01
102574, -1.85815656E+00, 1.82305528E-02, 6.81914291E+01
102575, -1.86378407E+00, 1.89299304E-02, 6.80681381E+01
102576, -2.08836889E+00, -1.82628329E-02, 6.80681381E+01
102577, -2.07573950E+00, -1.95851649E-02, 6.83147125E+01
102578, -1.85253710E+00, 1.75368758E-02, 6.83147125E+01
102579, -1.85815656E+00, 1.82305528E-02, 6.81914291E+01
102580, -2.08204973E+00, -1.89271064E-02, 6.81914291E+01
102581, -2.06943906E+00, -2.02371799E-02, 6.84380035E+01
102582, -1.84692597E+00, 1.68487502E-02, 6.84380035E+01
102583, -1.85253710E+00, 1.75368758E-02, 6.83147125E+01
102584, -2.07573950E+00, -1.95851649E-02, 6.83147125E+01
102585, -2.06314015E+00, -2.08838233E-02, 6.85614243E+01
102586, -1.84131646E+00, 1.61654486E-02, 6.85614281E+01
102587, -1.84692597E+00, 1.68487502E-02, 6.84380035E+01
102588, -2.06943906E+00, -2.02371799E-02, 6.84380035E+01
102589, -2.05685043E+00, -2.15241415E-02, 6.86848526E+01
102590, -1.83571476E+00, 1.54879335E-02, 6.86848526E+01
102591, -1.84131646E+00, 1.61654486E-02, 6.85614281E+01
102592, -2.06314015E+00, -2.08838233E-02, 6.85614243E+01
102593, -2.05056966E+00, -2.21581636E-02, 6.88082809E+01
102594, -1.83012098E+00, 1.48161866E-02, 6.88082809E+01
102595, -1.83571476E+00, 1.54879335E-02, 6.86848526E+01
102596, -2.05685043E+00, -2.15241415E-02, 6.86848526E+01
102597, -2.04429793E+00, -2.27859049E-02, 6.89317093E+01
102598, -1.82453537E+00, 1.41502018E-02, 6.89317093E+01
102599, -1.83012098E+00, 1.48161866E-02, 6.88082809E+01
102600, -2.05056966E+00, -2.21581636E-02, 6.88082809E+01
102601, -2.03803587E+00, -2.34073801E-02, 6.90551376E+01
102602, -1.81895805E+00, 1.34899672E-02, 6.90551453E+01
102603, -1.82453537E+00, 1.41502018E-02, 6.89317093E+01
102604, -2.04429793E+00, -2.27859049E-02, 6.89317093E+01
102605, -2.03178334E+00, -2.40226104E-02, 6.91785736E+01
102606, -1.81338918E+00, 1.28354733E-02, 6.91785736E+01
102607, -1.81895805E+00, 1.34899672E-02, 6.90551453E+01
102608, -2.03803587E+00, -2.34073801E-02, 6.90551376E+01
102609, -2.02554059E+00, -2.46316092E-02, 6.93020020E+01
102610, -1.80782908E+00, 1.21867200E-02, 6.93020020E+01
102611, -1.81338918E+00, 1.28354733E-02, 6.91785736E+01
102612, -2.03178334E+00, -2.40226104E-02, 6.91785736E+01
102613, -2.01931476E+00, -2.52335262E-02, 6.94252853E+01
102614, -1.80228389E+00, 1.15445735E-02, 6.94252853E+01
102615, -1.80782908E+00, 1.21867200E-02, 6.93020020E+01
102616, -2.02554059E+00, -2.46316092E-02, 6.93020020E+01
102617, -2.01309860E+00, -2.58290037E-02, 6.95485687E+01
102618, -1.79674709E+00, 1.09083369E-02, 6.95485687E+01
102619, -1.80228389E+00, 1.15445735E-02, 6.94252853E+01
102620, -2.01931476E+00, -2.52335262E-02, 6.94252853E+01
102621, -2.00689173E+00, -2.64181993E-02, 6.96718521E+01
102622, -1.79121852E+00, 1.02778729E-02, 6.96718521E+01
102623, -1.79674709E+00, 1.09083369E-02, 6.95485687E+01
102624, -2.01309860E+00, -2.58290037E-02, 6.95485687E+01
102625, -2.00069452E+00, -2.70012543E-02, 6.97951431E+01
102626, -1.78569853E+00, 9.65305510E-03, 6.97951431E+01
102627, -1.79121852E+00, 1.02778729E-02, 6.96718521E+01
102628, -2.00689173E+00, -2.64181993E-02, 6.96718521E+01
102629, -1.99450701E+00, -2.75783120E-02, 6.99184265E+01
102630, -1.78018713E+00, 9.03375540E-03, 6.99184265E+01
102631, -1.78569853E+00, 9.65305510E-03, 6.97951431E+01
102632, -2.00069452E+00, -2.70012543E-02, 6.97951431E+01
102633, -1.98832941E+00, -2.81495181E-02, 7.00417137E+01
102634, -1.77468437E+00, 8.41984760E-03, 7.00417175E+01
102635, -1.78018713E+00, 9.03375540E-03, 6.99184265E+01
102636, -1.99450701E+00, -2.75783120E-02, 6.99184265E+01
102637, -1.98216170E+00, -2.87150144E-02, 7.01650009E+01
102638, -1.76919049E+00, 7.81120965E-03, 7.01650009E+01
102639, -1.77468437E+00, 8.41984760E-03, 7.00417175E+01
102640, -1.98832941E+00, -2.81495181E-02, 7.00417137E+01
102641, -1.97599697E+00, -2.92750308E-02, 7.02884293E+01
102642, -1.76369893E+00, 7.20750590E-03, 7.02884293E+01
102643, -1.76919049E+00, 7.81120965E-03, 7.01650009E+01
102644, -1.98216170E+00, -2.87150144E-02, 7.01650009E+01
102645, -1.96984190E+00, -2.98286574E-02, 7.04118576E+01
102646, -1.75821608E+00, 6.60968110E-03, 7.04118576E+01
102647, -1.76369893E+00, 7.20750590E-03, 7.02884293E+01
102648, -1.97599697E+00, -2.92750308E-02, 7.02884293E+01
102649, -1.96369666E+00, -3.03762490E-02, 7.05352859E+01
102650, -1.75274187E+00, 6.01740740E-03, 7.05352859E+01
102651, -1.75821608E+00, 6.60968110E-03, 7.04118576E+01
102652, -1.96984190E+00, -2.98286574E-02, 7.04118576E+01
102653, -1.95756125E+00, -3.09181679E-02, 7.06587143E+01
102654, -1.74727631E+00, 5.43036730E-03, 7.06587143E+01
102655, -1.75274187E+00, 6.01740740E-03, 7.05352859E+01
102656, -1.96369666E+00, -3.03762490E-02, 7.05352859E+01
102657, -1.95143593E+00, -3.14547680E-02, 7.07821426E+01
102658, -1.74181962E+00, 4.84824365E-03, 7.07821426E+01
102659, -1.74727631E+00, 5.43036730E-03, 7.06587143E+01
102660, -1.95756125E+00, -3.09181679E-02, 7.06587143E+01
102661, -1.94532067E+00, -3.19864117E-02, 7.09055710E+01
102662, -1.73637194E+00, 4.27071375E-03, 7.09055710E+01
102663, -1.74181962E+00, 4.84824365E-03, 7.07821426E+01
102664, -1.95143593E+00, -3.14547680E-02, 7.07821426E+01
102665, -1.93921554E+00, -3.25134509E-02, 7.10289993E+01
102666, -1.73093319E+00, 3.69746985E-03, 7.10289993E+01
102667, -1.73637194E+00, 4.27071375E-03, 7.09055710E+01
102668, -1.94532067E+00, -3.19864117E-02, 7.09055710E+01
102669, -1.93388200E+00, -3.29706734E-02, 7.11370010E+01
102670, -1.72618174E+00, 3.19952980E-03, 7.11370010E+01
102671, -1.73093319E+00, 3.69746985E-03, 7.10289993E+01
102672, -1.93921554E+00, -3.25134509E-02, 7.10289993E+01
102673, -1.92855621E+00, -3.34238950E-02, 7.12449951E+01
102674, -1.72143704E+00, 2.70529185E-03, 7.12449951E+01
102675, -1.72618174E+00, 3.19952980E-03, 7.11370010E+01
102676, -1.93388200E+00, -3.29706734E-02, 7.11370010E+01
102677, -1.92323798E+00, -3.38731874E-02, 7.13529968E+01
102678, -1.71669907E+00, 2.21469070E-03, 7.13529968E+01
102679, -1.72143704E+00, 2.70529185E-03, 7.12449951E+01
102680, -1.92855621E+00, -3.34238950E-02, 7.12449951E+01
102681, -1.91792745E+00, -3.43186111E-02, 7.14609985E+01
102682, -1.71196800E+00, 1.72767135E-03, 7.14609985E+01
102683, -1.71669907E+00, 2.21469070E-03, 7.13529968E+01
102684, -1.92323798E+00, -3.38731874E-02, 7.13529968E+01
102685, -1.91262478E+00, -3.47602320E-02, 7.15690002E+01
102686, -1.70724380E+00, 1.24417615E-03, 7.15690002E+01
102687, -1.71196800E+00, 1.72767135E-03, 7.14609985E+01
102688, -1.91792745E+00, -3.43186111E-02, 7.14609985E+01
102689, -1.90732979E+00, -3.51981166E-02, 7.16770020E+01
102690, -1.70252645E+00, 7.64149250E-04, 7.16770020E+01
102691, -1.70724380E+00, 1.24417615E-03, 7.15690002E+01
102692, -1.91262478E+00, -3.47602320E-02, 7.15690002E+01
102693, -1.90204269E+00, -3.56323262E-02, 7.17849999E+01
102694, -1.69781601E+00, 2.87530050E-04, 7.17849999E+01
102695, -1.70252645E+00, 7.64149250E-04, 7.16770020E+01
102696, -1.90732979E+00, -3.51981166E-02, 7.16770020E+01
102697, -1.89676362E+00, -3.60629196E-02, 7.18929977E+01
102698, -1.69311267E+00, -1.85729950E-04, 7.18929977E+01
102699, -1.69781601E+00, 2.87530050E-04, 7.17849999E+01
102700, -1.90204269E+00, -3.56323262E-02, 7.17849999E+01
102701, -1.89149857E+00, -3.64893628E-02, 7.20008774E+01
102702, -1.68842184E+00, -6.55049450E-04, 7.20008774E+01
102703, -1.69311267E+00, -1.85729950E-04, 7.18929977E+01
102704, -1.89676362E+00, -3.60629196E-02, 7.18929977E+01
102705, -1.88624150E+00, -3.69120706E-02, 7.21087494E+01
102706, -1.68373799E+00, -1.12090350E-03, 7.21087494E+01
102707, -1.68842184E+00, -6.55049450E-04, 7.20008774E+01
102708, -1.89149857E+00, -3.64893628E-02, 7.20008774E+01
102709, -1.88099229E+00, -3.73310615E-02, 7.22166214E+01
102710, -1.67906112E+00, -1.58331075E-03, 7.22166214E+01
102711, -1.68373799E+00, -1.12090350E-03, 7.21087494E+01
102712, -1.88624150E+00, -3.69120706E-02, 7.21087494E+01
102713, -1.87575090E+00, -3.77463503E-02, 7.23245010E+01
102714, -1.67439115E+00, -2.04228145E-03, 7.23245010E+01
102715, -1.67906112E+00, -1.58331075E-03, 7.22166214E+01
102716, -1.88099229E+00, -3.73310615E-02, 7.22166214E+01
102717, -1.87051714E+00, -3.81579446E-02, 7.24323730E+01
102718, -1.66972798E+00, -2.49782670E-03, 7.24323730E+01
102719, -1.67439115E+00, -2.04228145E-03, 7.23245010E+01
102720, -1.87575090E+00, -3.77463503E-02, 7.23245010E+01
102721, -1.86529106E+00, -3.85658601E-02, 7.25402451E+01
102722, -1.66507155E+00, -2.94996145E-03, 7.25402451E+01
102723, -1.66972798E+00, -2.49782670E-03, 7.24323730E+01
102724, -1.87051714E+00, -3.81579446E-02, 7.24323730E+01
102725, -1.86007249E+00, -3.89701090E-02, 7.26481247E+01
102726, -1.66042173E+00, -3.39869785E-03, 7.26481247E+01
102727, -1.66507155E+00, -2.94996145E-03, 7.25402451E+01
102728, -1.86529106E+00, -3.85658601E-02, 7.25402451E+01
102729, -1.85486144E+00, -3.93706942E-02, 7.27559967E+01
102730, -1.65577865E+00, -3.84403950E-03, 7.27559967E+01
102731, -1.66042173E+00, -3.39869785E-03, 7.26481247E+01
102732, -1.86007249E+00, -3.89701090E-02, 7.26481247E+01
102733, -1.84965205E+00, -3.97678054E-02, 7.28639984E+01
102734, -1.65113699E+00, -4.28625615E-03, 7.28639984E+01
102735, -1.65577865E+00, -3.84403950E-03, 7.27559967E+01
102736, -1.85486144E+00, -3.93706942E-02, 7.27559967E+01
102737, -1.84445066E+00, -4.01608432E-02, 7.29720001E+01
102738, -1.64650226E+00, -4.72470420E-03, 7.29720001E+01
102739, -1.65113699E+00, -4.28625615E-03, 7.28639984E+01
102740, -1.84965205E+00, -3.97678054E-02, 7.28639984E+01
102741, -1.83925682E+00, -4.05500420E-02, 7.30800018E+01
102742, -1.64187437E+00, -5.15959925E-03, 7.30800018E+01
102743, -1.64650226E+00, -4.72470420E-03, 7.29720001E+01
102744, -1.84445066E+00, -4.01608432E-02, 7.29720001E+01
102745, -1.83407056E+00, -4.09356337E-02, 7.31879959E+01
102746, -1.63725316E+00, -5.59114850E-03, 7.31879959E+01
102747, -1.64187437E+00, -5.15959925E-03, 7.30800018E+01
102748, -1.83925682E+00, -4.05500420E-02, 7.30800018E+01
102749, -1.82889187E+00, -4.13178485E-02, 7.32959976E+01
102750, -1.63263852E+00, -6.01955735E-03, 7.32959976E+01
102751, -1.63725316E+00, -5.59114850E-03, 7.31879959E+01
102752, -1.83407056E+00, -4.09356337E-02, 7.31879959E+01
102753, -1.82372046E+00, -4.16969135E-02, 7.34039993E+01
102754, -1.62803042E+00, -6.44503580E-03, 7.34039993E+01
102755, -1.63263852E+00, -6.01955735E-03, 7.32959976E+01
102756, -1.82889187E+00, -4.13178485E-02, 7.32959976E+01
102757, -1.81855625E+00, -4.20730654E-02, 7.35120010E+01
102758, -1.62342870E+00, -6.86778690E-03, 7.35120010E+01
102759, -1.62803042E+00, -6.44503580E-03, 7.34039993E+01
102760, -1.82372046E+00, -4.16969135E-02, 7.34039993E+01
102761, -1.81339925E+00, -4.24465258E-02, 7.36200027E+01
102762, -1.61883336E+00, -7.28801450E-03, 7.36200027E+01
102763, -1.62342870E+00, -6.86778690E-03, 7.35120010E+01
102764, -1.81855625E+00, -4.20730654E-02, 7.35120010E+01
102765, -1.80824947E+00, -4.28171232E-02, 7.37279968E+01
102766, -1.61424434E+00, -7.70557440E-03, 7.37280006E+01
102767, -1.61883336E+00, -7.28801450E-03, 7.36200027E+01
102768, -1.81339925E+00, -4.24465258E-02, 7.36200027E+01
102769, -1.80310708E+00, -4.31845653E-02, 7.38359985E+01
102770, -1.60966188E+00, -8.12019130E-03, 7.38359985E+01
102771, -1.61424434E+00, -7.70557440E-03, 7.37280006E+01
102772, -1.80824947E+00, -4.28171232E-02, 7.37279968E+01
102773, -1.79797196E+00, -4.35489062E-02, 7.39440002E+01
102774, -1.60508597E+00, -8.53191410E-03, 7.39440002E+01
102775, -1.60966188E+00, -8.12019130E-03, 7.38359985E+01
102776, -1.80310708E+00, -4.31845653E-02, 7.38359985E+01
102777, -1.79284424E+00, -4.39101904E-02, 7.40519943E+01
102778, -1.60051650E+00, -8.94079035E-03, 7.40520020E+01
102779, -1.60508597E+00, -8.53191410E-03, 7.39440002E+01
102780, -1.79797196E+00, -4.35489062E-02, 7.39440002E+01
102781, -1.78772366E+00, -4.42684721E-02, 7.41599960E+01
102782, -1.59595340E+00, -9.34686092E-03, 7.41599960E+01
102783, -1.60051650E+00, -8.94079035E-03, 7.40520020E+01
102784, -1.79284424E+00, -4.39101904E-02, 7.40519943E+01
102785, -1.78261041E+00, -4.46237959E-02, 7.42679977E+01
102786, -1.59139681E+00, -9.75017298E-03, 7.42679977E+01
102787, -1.59595340E+00, -9.34686092E-03, 7.41599960E+01
102788, -1.78772366E+00, -4.42684721E-02, 7.41599960E+01
102789, -1.77750438E+00, -4.49762121E-02, 7.43759995E+01
102790, -1.58684659E+00, -1.01507641E-02, 7.43759995E+01
102791, -1.59139681E+00, -9.75017298E-03, 7.42679977E+01
102792, -1.78261041E+00, -4.46237959E-02, 7.42679977E+01
102793, -1.77240562E+00, -4.53257654E-02, 7.44840012E+01
102794, -1.58230281E+00, -1.05486749E-02, 7.44840012E+01
102795, -1.58684659E+00, -1.01507641E-02, 7.43759995E+01
102796, -1.77750438E+00, -4.49762121E-02, 7.43759995E+01
102797, -1.76731956E+00, -4.56720013E-02, 7.45918732E+01
102798, -1.57777035E+00, -1.09434179E-02, 7.45918732E+01
102799, -1.58230281E+00, -1.05486749E-02, 7.44840012E+01
102800, -1.77240562E+00, -4.53257654E-02, 7.44840012E+01
102801, -1.76224029E+00, -4.60152589E-02, 7.46997452E+01
102802, -1.57324374E+00, -1.13353883E-02, 7.46997528E+01
102803, -1.57777035E+00, -1.09434179E-02, 7.45918732E+01
102804, -1.76731956E+00, -4.56720013E-02, 7.45918732E+01
102805, -1.75716787E+00, -4.63555642E-02, 7.48076248E+01
102806, -1.56872338E+00, -1.17246045E-02, 7.48076248E+01
102807, -1.57324374E+00, -1.13353883E-02, 7.46997528E+01
102808, -1.76224029E+00, -4.60152589E-02, 7.46997452E+01
102809, -1.75210285E+00, -4.66929451E-02, 7.49154968E+01
102810, -1.56420952E+00, -1.21110883E-02, 7.49154968E+01
102811, -1.56872338E+00, -1.17246045E-02, 7.48076248E+01
102812, -1.75716787E+00, -4.63555642E-02, 7.48076248E+01
102813, -1.74704564E+00, -4.70274258E-02, 7.50233765E+01
102814, -1.55970246E+00, -1.24948537E-02, 7.50233765E+01
102815, -1.56420952E+00, -1.21110883E-02, 7.49154968E+01
102816, -1.75210285E+00, -4.66929451E-02, 7.49154968E+01
102817, -1.74199641E+00, -4.73590344E-02, 7.51312485E+01
102818, -1.55520260E+00, -1.28759183E-02, 7.51312485E+01
102819, -1.55970246E+00, -1.24948537E-02, 7.50233765E+01
102820, -1.74704564E+00, -4.70274258E-02, 7.50233765E+01
102821, -1.73695565E+00, -4.76877968E-02, 7.52391281E+01
102822, -1.55071021E+00, -1.32543007E-02, 7.52391281E+01
102823, -1.55520260E+00, -1.28759183E-02, 7.51312485E+01
102824, -1.74199641E+00, -4.73590344E-02, 7.51312485E+01
102825, -1.73192370E+00, -4.80137300E-02, 7.53470001E+01
102826, -1.54622573E+00, -1.36300095E-02, 7.53470001E+01
102827, -1.55071021E+00, -1.32543007E-02, 7.52391281E+01
102828, -1.73695565E+00, -4.76877968E-02, 7.52391281E+01
102829, -1.72689408E+00, -4.83369995E-02, 7.54550018E+01
102830, -1.54174322E+00, -1.40033029E-02, 7.54550018E+01
102831, -1.54622573E+00, -1.36300095E-02, 7.53470001E+01
102832, -1.73192370E+00, -4.80137300E-02, 7.53470001E+01
102833, -1.72187209E+00, -4.86571044E-02, 7.55629959E+01
102834, -1.53726739E+00, -1.43736475E-02, 7.55629959E+01
102835, -1.54174322E+00, -1.40033029E-02, 7.54550018E+01
102836, -1.72689408E+00, -4.83369995E-02, 7.54550018E+01
102837, -1.71685797E+00, -4.89742234E-02, 7.56709976E+01
102838, -1.53279853E+00, -1.47411941E-02, 7.56709976E+01
102839, -1.53726739E+00, -1.43736475E-02, 7.55629959E+01
102840, -1.72187209E+00, -4.86571044E-02, 7.55629959E+01
102841, -1.71185220E+00, -4.92885299E-02, 7.57789993E+01
102842, -1.52833712E+00, -1.51060878E-02, 7.57789993E+01
102843, -1.53279853E+00, -1.47411941E-02, 7.56709976E+01
102844, -1.71685797E+00, -4.89742234E-02, 7.56709976E+01
102845, -1.70685523E+00, -4.96001951E-02, 7.58870010E+01
102846, -1.52388352E+00, -1.54684760E-02, 7.58870010E+01
102847, -1.52833712E+00, -1.51060878E-02, 7.57789993E+01
102848, -1.71185220E+00, -4.92885299E-02, 7.57789993E+01
102849, -1.70186758E+00, -4.99093905E-02, 7.59949951E+01
102850, -1.51943821E+00, -1.58285039E-02, 7.59949951E+01
102851, -1.52388352E+00, -1.54684760E-02, 7.58870010E+01
102852, -1.70685523E+00, -4.96001951E-02, 7.58870010E+01
102853, -1.69688964E+00, -5.02162893E-02, 7.61029968E+01
102854, -1.51500148E+00, -1.61863202E-02, 7.61029968E+01
102855, -1.51943821E+00, -1.58285039E-02, 7.59949951E+01
102856, -1.70186758E+00, -4.99093905E-02, 7.59949951E+01
102857, -1.69192183E+00, -5.05210590E-02, 7.62109985E+01
102858, -1.51057387E+00, -1.65420653E-02, 7.62109985E+01
102859, -1.51500148E+00, -1.61863202E-02, 7.61029968E+01
102860, -1.69688964E+00, -5.02162893E-02, 7.61029968E+01
102861, -1.68751490E+00, -5.07901311E-02, 7.63069992E+01
102862, -1.50664598E+00, -1.68564949E-02, 7.63069992E+01
102863, -1.51057387E+00, -1.65420653E-02, 7.62109985E+01
102864, -1.69192183E+00, -5.05210590E-02, 7.62109985E+01
102865, -1.68311602E+00, -5.10573089E-02, 7.64029999E+01
102866, -1.50272536E+00, -1.71690994E-02, 7.64029999E+01
102867, -1.50664598E+00, -1.68564949E-02, 7.63069992E+01
102868, -1.68751490E+00, -5.07901311E-02, 7.63069992E+01
102869, -1.67872494E+00, -5.13225887E-02, 7.64990005E+01
102870, -1.49881160E+00, -1.74798807E-02, 7.64990005E+01
102871, -1.50272536E+00, -1.71690994E-02, 7.64029999E+01
102872, -1.68311602E+00, -5.10573089E-02, 7.64029999E+01
102873, -1.67434126E+00, -5.15859667E-02, 7.65950012E+01
102874, -1.49490440E+00, -1.77888356E-02, 7.65950012E+01
102875, -1.49881160E+00, -1.74798807E-02, 7.64990005E+01
102876, -1.67872494E+00, -5.13225887E-02, 7.64990005E+01
102877, -1.66996467E+00, -5.18474299E-02, 7.66909943E+01
102878, -1.49100357E+00, -1.80959628E-02, 7.66909981E+01
102879, -1.49490440E+00, -1.77888356E-02, 7.65950012E+01
102880, -1.67434126E+00, -5.15859667E-02, 7.65950012E+01
102881, -1.66559499E+00, -5.21069709E-02, 7.67869949E+01
102882, -1.48710883E+00, -1.84012593E-02, 7.67869987E+01
102883, -1.49100357E+00, -1.80959628E-02, 7.66909981E+01
102884, -1.66996467E+00, -5.18474299E-02, 7.66909943E+01
102885, -1.66123175E+00, -5.23645822E-02, 7.68829956E+01
102886, -1.48321974E+00, -1.87047255E-02, 7.68830032E+01
102887, -1.48710883E+00, -1.84012593E-02, 7.67869987E+01
102888, -1.66559499E+00, -5.21069709E-02, 7.67869949E+01
102889, -1.65687477E+00, -5.26202545E-02, 7.69790001E+01
102890, -1.47933633E+00, -1.90063558E-02, 7.69790001E+01
102891, -1.48321974E+00, -1.87047255E-02, 7.68830032E+01
102892, -1.66123175E+00, -5.23645822E-02, 7.68829956E+01
102893, -1.65252381E+00, -5.28739803E-02, 7.70749969E+01
102894, -1.47545821E+00, -1.93061449E-02, 7.70749969E+01
102895, -1.47933633E+00, -1.90063558E-02, 7.69790001E+01
102896, -1.65687477E+00, -5.26202545E-02, 7.69790001E+01
102897, -1.64818585E+00, -5.31254858E-02, 7.71708908E+01
102898, -1.47159159E+00, -1.96037405E-02, 7.71708908E+01
102899, -1.47545821E+00, -1.93061449E-02, 7.70749969E+01
102900, -1.65252381E+00, -5.28739803E-02, 7.70749969E+01
102901, -1.64385748E+00, -5.33750858E-02, 7.72667770E+01
102902, -1.46773350E+00, -1.98994704E-02, 7.72667809E+01
102903, -1.47159159E+00, -1.96037405E-02, 7.71708908E+01
102904, -1.64818585E+00, -5.31254858E-02, 7.71708908E+01
102905, -1.63953704E+00, -5.36227673E-02, 7.73626633E+01
102906, -1.46388250E+00, -2.01933570E-02, 7.73626709E+01
102907, -1.46773350E+00, -1.98994704E-02, 7.72667809E+01
102908, -1.64385748E+00, -5.33750858E-02, 7.72667770E+01
102909, -1.63522315E+00, -5.38685285E-02, 7.74585571E+01
102910, -1.46003729E+00, -2.04854156E-02, 7.74585571E+01
102911, -1.46388250E+00, -2.01933570E-02, 7.73626709E+01
102912, -1.63953704E+00, -5.36227673E-02, 7.73626633E+01
102913, -1.63091427E+00, -5.41123506E-02, 7.75544434E+01
102914, -1.45619655E+00, -2.07756615E-02, 7.75544434E+01
102915, -1.46003729E+00, -2.04854156E-02, 7.74585571E+01
102916, -1.63522315E+00, -5.38685285E-02, 7.74585571E+01
102917, -1.62660897E+00, -5.43542281E-02, 7.76503372E+01
102918, -1.45235902E+00, -2.10641103E-02, 7.76503372E+01
102919, -1.45619655E+00, -2.07756615E-02, 7.75544434E+01
102920, -1.63091427E+00, -5.41123506E-02, 7.75544434E+01
102921, -1.62230575E+00, -5.45941498E-02, 7.77462234E+01
102922, -1.44852322E+00, -2.13507775E-02, 7.77462234E+01
102923, -1.45235902E+00, -2.10641103E-02, 7.76503372E+01
102924, -1.62660897E+00, -5.43542281E-02, 7.76503372E+01
102925, -1.61800319E+00, -5.48321008E-02, 7.78421097E+01
102926, -1.44468808E+00, -2.16356763E-02, 7.78421135E+01
102927, -1.44852322E+00, -2.13507775E-02, 7.77462234E+01
102928, -1.62230575E+00, -5.45941498E-02, 7.77462234E+01
102929, -1.61369991E+00, -5.50680701E-02, 7.79380035E+01
102930, -1.44085216E+00, -2.19188156E-02, 7.79380035E+01
102931, -1.44468808E+00, -2.16356763E-02, 7.78421135E+01
102932, -1.61800319E+00, -5.48321008E-02, 7.78421097E+01
102933, -1.60939414E+00, -5.53023518E-02, 7.80339966E+01
102934, -1.43701404E+00, -2.22004971E-02, 7.80339966E+01
102935, -1.44085216E+00, -2.19188156E-02, 7.79380035E+01
102936, -1.61369991E+00, -5.50680701E-02, 7.79380035E+01
102937, -1.60509402E+00, -5.55347000E-02, 7.81299973E+01
102938, -1.43318093E+00, -2.24803519E-02, 7.81299973E+01
102939, -1.43701404E+00, -2.22004971E-02, 7.80339966E+01
102940, -1.60939414E+00, -5.53023518E-02, 7.80339966E+01
102941, -1.60079783E+00, -5.57650906E-02, 7.82259979E+01
102942, -1.42935127E+00, -2.27583996E-02, 7.82259979E+01
102943, -1.43318093E+00, -2.24803519E-02, 7.81299973E+01
102944, -1.60509402E+00, -5.55347000E-02, 7.81299973E+01
102945, -1.59650373E+00, -5.59935215E-02, 7.83219986E+01
102946, -1.42552346E+00, -2.30346615E-02, 7.83219986E+01
102947, -1.42935127E+00, -2.27583996E-02, 7.82259979E+01
102948, -1.60079783E+00, -5.57650906E-02, 7.82259979E+01
102949, -1.59221000E+00, -5.62199819E-02, 7.84179993E+01
102950, -1.42169589E+00, -2.33091582E-02, 7.84179993E+01
102951, -1.42552346E+00, -2.30346615E-02, 7.83219986E+01
102952, -1.59650373E+00, -5.59935215E-02, 7.83219986E+01
102953, -1.58791476E+00, -5.64444568E-02, 7.85139999E+01
102954, -1.41786700E+00, -2.35819109E-02, 7.85139999E+01
102955, -1.42169589E+00, -2.33091582E-02, 7.84179993E+01
102956, -1.59221000E+00, -5.62199819E-02, 7.84179993E+01
102957, -1.58361625E+00, -5.66669386E-02, 7.86100006E+01
102958, -1.41403514E+00, -2.38529379E-02, 7.86100006E+01
102959, -1.41786700E+00, -2.35819109E-02, 7.85139999E+01
102960, -1.58791476E+00, -5.64444568E-02, 7.85139999E+01
102961, -1.57931269E+00, -5.68874162E-02, 7.87060013E+01
102962, -1.41019875E+00, -2.41222628E-02, 7.87060013E+01
102963, -1.41403514E+00, -2.38529379E-02, 7.86100006E+01
102964, -1.58361625E+00, -5.66669386E-02, 7.86100006E+01
102965, -1.57500225E+00, -5.71058821E-02, 7.88020020E+01
102966, -1.40635621E+00, -2.43899049E-02, 7.88020020E+01
102967, -1.41019875E+00, -2.41222628E-02, 7.87060013E+01
102968, -1.57931269E+00, -5.68874162E-02, 7.87060013E+01
102969, -1.57069099E+00, -5.73225692E-02, 7.88980026E+01
102970, -1.40251285E+00, -2.46559815E-02, 7.88980026E+01
102971, -1.40635621E+00, -2.43899049E-02, 7.88020020E+01
102972, -1.57500225E+00, -5.71058821E-02, 7.88020020E+01
102973, -1.56638342E+00, -5.75376228E-02, 7.89940033E+01
102974, -1.39867288E+00, -2.49205320E-02, 7.89940033E+01
102975, -1.40251285E+00, -2.46559815E-02, 7.88980026E+01
102976, -1.57069099E+00, -5.73225692E-02, 7.88980026E+01
102977, -1.56207621E+00, -5.77508621E-02, 7.90900040E+01
102978, -1.39483303E+00, -2.51834588E-02, 7.90900040E+01
102979, -1.39867288E+00, -2.49205320E-02, 7.89940033E+01
102980, -1.56638342E+00, -5.75376228E-02, 7.89940033E+01
102981, -1.55776573E+00, -5.79621047E-02, 7.91860046E+01
102982, -1.39099031E+00, -2.54446603E-02, 7.91860046E+01
102983, -1.39483303E+00, -2.51834588E-02, 7.90900040E+01
102984, -1.56207621E+00, -5.77508621E-02, 7.90900040E+01
102985, -1.55344844E+00, -5.81711736E-02, 7.92820053E+01
102986, -1.38714147E+00, -2.57040383E-02, 7.92820053E+01
102987, -1.39099031E+00, -2.54446603E-02, 7.91860046E+01
102988, -1.55776573E+00, -5.79621047E-02, 7.91860046E+01
102989, -1.54912078E+00, -5.83778993E-02, 7.93780060E+01
102990, -1.38328337E+00, -2.59614968E-02, 7.93780060E+01
102991, -1.38714147E+00, -2.57040383E-02, 7.92820053E+01
102992, -1.55344844E+00, -5.81711736E-02, 7.92820053E+01
102993, -1.54477918E+00, -5.85820954E-02, 7.94740067E+01
102994, -1.37941277E+00, -2.62169358E-02, 7.94740029E+01
102995, -1.38328337E+00, -2.59614968E-02, 7.93780060E+01
102996, -1.54912078E+00, -5.83778993E-02, 7.93780060E+01
102997, -1.54042024E+00, -5.87835871E-02, 7.95699997E+01
102998, -1.37552655E+00, -2.64702584E-02, 7.95699997E+01
102999, -1.37941277E+00, -2.62169358E-02, 7.94740029E+01
103000, -1.54477918E+00, -5.85820954E-02, 7.94740067E+01
103001, -1.53604019E+00, -5.89822009E-02, 7.96660004E+01
103002, -1.37162148E+00, -2.67213653E-02, 7.96660004E+01
103003, -1.37552655E+00, -2.64702584E-02, 7.95699997E+01
103004, -1.54042024E+00, -5.87835871E-02, 7.95699997E+01
103005, -1.53165227E+00, -5.91781978E-02, 7.97618942E+01
103006, -1.36770952E+00, -2.69702687E-02, 7.97618942E+01
103007, -1.37162148E+00, -2.67213653E-02, 7.96660004E+01
103008, -1.53604019E+00, -5.89822009E-02, 7.96660004E+01
103009, -1.52725959E+00, -5.93722202E-02, 7.98577805E+01
103010, -1.36379319E+00, -2.72174896E-02, 7.98577805E+01
103011, -1.36770952E+00, -2.69702687E-02, 7.97618942E+01
103012, -1.53165227E+00, -5.91781978E-02, 7.97618942E+01
103013, -1.52285754E+00, -5.95639963E-02, 7.99536743E+01
103014, -1.35986834E+00, -2.74628629E-02, 7.99536743E+01
103015, -1.36379319E+00, -2.72174896E-02, 7.98577805E+01
103016, -1.52725959E+00, -5.93722202E-02, 7.98577805E+01
103017, -1.51844155E+00, -5.97532504E-02, 8.00495682E+01
103018, -1.35593110E+00, -2.77062230E-02, 8.00495605E+01
103019, -1.35986834E+00, -2.74628629E-02, 7.99536743E+01
103020, -1.52285754E+00, -5.95639963E-02, 7.99536743E+01
103021, -1.51400721E+00, -5.99397104E-02, 8.01454544E+01
103022, -1.35197747E+00, -2.79474021E-02, 8.01454544E+01
103023, -1.35593110E+00, -2.77062230E-02, 8.00495605E+01
103024, -1.51844155E+00, -5.97532504E-02, 8.00495682E+01
103025, -1.50954998E+00, -6.01231065E-02, 8.02413406E+01
103026, -1.34800333E+00, -2.81862314E-02, 8.02413406E+01
103027, -1.35197747E+00, -2.79474021E-02, 8.01454544E+01
103028, -1.51400721E+00, -5.99397104E-02, 8.01454544E+01
103029, -1.50506545E+00, -6.03031703E-02, 8.03372269E+01
103030, -1.34400475E+00, -2.84225447E-02, 8.03372269E+01
103031, -1.34800333E+00, -2.81862314E-02, 8.02413406E+01
103032, -1.50954998E+00, -6.01231065E-02, 8.02413406E+01
103033, -1.50054902E+00, -6.04796205E-02, 8.04331131E+01
103034, -1.33997768E+00, -2.86561768E-02, 8.04331131E+01
103035, -1.34400475E+00, -2.84225447E-02, 8.03372269E+01
103036, -1.50506545E+00, -6.03031703E-02, 8.03372269E+01
103037, -1.49599629E+00, -6.06521908E-02, 8.05289993E+01
103038, -1.33591807E+00, -2.88869608E-02, 8.05289993E+01
103039, -1.33997768E+00, -2.86561768E-02, 8.04331131E+01
103040, -1.50054902E+00, -6.04796205E-02, 8.04331131E+01
103041, -1.49186980E+00, -6.08047861E-02, 8.06154022E+01
103042, -1.33223862E+00, -2.90927258E-02, 8.06154022E+01
103043, -1.33591807E+00, -2.88869608E-02, 8.05289993E+01
103044, -1.49599629E+00, -6.06521908E-02, 8.05289993E+01
103045, -1.48772895E+00, -6.09550979E-02, 8.07018127E+01
103046, -1.32854622E+00, -2.92966915E-02, 8.07018051E+01
103047, -1.33223862E+00, -2.90927258E-02, 8.06154022E+01
103048, -1.49186980E+00, -6.08047861E-02, 8.06154022E+01
103049, -1.48357040E+00, -6.11029360E-02, 8.07882156E+01
103050, -1.32483804E+00, -2.94987536E-02, 8.07882080E+01
103051, -1.32854622E+00, -2.92966915E-02, 8.07018051E+01
103052, -1.48772895E+00, -6.09550979E-02, 8.07018127E+01
103053, -1.47939074E+00, -6.12481255E-02, 8.08746185E+01
103054, -1.32111084E+00, -2.96988068E-02, 8.08746109E+01
103055, -1.32483804E+00, -2.94987536E-02, 8.07882080E+01
103056, -1.48357040E+00, -6.11029360E-02, 8.07882156E+01
103057, -1.47518658E+00, -6.13904875E-02, 8.09610138E+01
103058, -1.31736189E+00, -2.98967492E-02, 8.09610138E+01
103059, -1.32111084E+00, -2.96988068E-02, 8.08746109E+01
103060, -1.47939074E+00, -6.12481255E-02, 8.08746185E+01
103061, -1.47095466E+00, -6.15298375E-02, 8.10474167E+01
103062, -1.31358809E+00, -3.00924769E-02, 8.10474167E+01
103063, -1.31736189E+00, -2.98967492E-02, 8.09610138E+01
103064, -1.47518658E+00, -6.13904875E-02, 8.09610138E+01
103065, -1.46669156E+00, -6.16660006E-02, 8.11338120E+01
103066, -1.30978632E+00, -3.02858837E-02, 8.11338120E+01
103067, -1.31358809E+00, -3.00924769E-02, 8.10474167E+01
103068, -1.47095466E+00, -6.15298375E-02, 8.10474167E+01
103069, -1.46239394E+00, -6.17987942E-02, 8.12202148E+01
103070, -1.30595374E+00, -3.04768672E-02, 8.12202072E+01
103071, -1.30978632E+00, -3.02858837E-02, 8.11338120E+01
103072, -1.46669156E+00, -6.16660006E-02, 8.11338120E+01
103073, -1.45805835E+00, -6.19280376E-02, 8.13066101E+01
103074, -1.30208725E+00, -3.06653241E-02, 8.13066025E+01
103075, -1.30595374E+00, -3.04768672E-02, 8.12202072E+01
103076, -1.46239394E+00, -6.17987942E-02, 8.12202148E+01
103077, -1.45368159E+00, -6.20535482E-02, 8.13929977E+01
103078, -1.29818380E+00, -3.08511495E-02, 8.13929977E+01
103079, -1.30208725E+00, -3.06653241E-02, 8.13066025E+01
103080, -1.45805835E+00, -6.19280376E-02, 8.13066101E+01
103081, -1.44927061E+00, -6.21760432E-02, 8.14794083E+01
103082, -1.29425001E+00, -3.10348509E-02, 8.14794083E+01
103083, -1.29818380E+00, -3.08511495E-02, 8.13929977E+01
103084, -1.45368159E+00, -6.20535482E-02, 8.13929977E+01
103085, -1.44483429E+00, -6.22960627E-02, 8.15658112E+01
103086, -1.29029346E+00, -3.12167723E-02, 8.15658112E+01
103087, -1.29425001E+00, -3.10348509E-02, 8.14794083E+01
103088, -1.44927061E+00, -6.21760432E-02, 8.14794083E+01
103089, -1.44036901E+00, -6.24132473E-02, 8.16522217E+01
103090, -1.28631109E+00, -3.13966517E-02, 8.16522141E+01
103091, -1.29029346E+00, -3.12167723E-02, 8.15658112E+01
103092, -1.44483429E+00, -6.22960627E-02, 8.15658112E+01
103093, -1.43587154E+00, -6.25272412E-02, 8.17386246E+01
103094, -1.28229988E+00, -3.15742307E-02, 8.17386169E+01
103095, -1.28631109E+00, -3.13966517E-02, 8.16522141E+01
103096, -1.44036901E+00, -6.24132473E-02, 8.16522217E+01
103097, -1.43133831E+00, -6.26376867E-02, 8.18250275E+01
103098, -1.27825671E+00, -3.17492448E-02, 8.18250198E+01
103099, -1.28229988E+00, -3.15742307E-02, 8.17386169E+01
103100, -1.43587154E+00, -6.25272412E-02, 8.17386246E+01
103101, -1.42676598E+00, -6.27442263E-02, 8.19114227E+01
103102, -1.27417857E+00, -3.19214352E-02, 8.19114227E+01
103103, -1.27825671E+00, -3.17492448E-02, 8.18250198E+01
103104, -1.43133831E+00, -6.26376867E-02, 8.18250275E+01
103105, -1.42215109E+00, -6.28465023E-02, 8.19978256E+01
103106, -1.27006239E+00, -3.20905410E-02, 8.19978180E+01
103107, -1.27417857E+00, -3.19214352E-02, 8.19114227E+01
103108, -1.42676598E+00, -6.27442263E-02, 8.19114227E+01
103109, -1.41749024E+00, -6.29441626E-02, 8.20842209E+01
103110, -1.26590502E+00, -3.22563005E-02, 8.20842133E+01
103111, -1.27006239E+00, -3.20905410E-02, 8.19978180E+01
103112, -1.42215109E+00, -6.28465023E-02, 8.19978256E+01
103113, -1.41278004E+00, -6.30368423E-02, 8.21706085E+01
103114, -1.26170355E+00, -3.24184540E-02, 8.21706085E+01
103115, -1.26590502E+00, -3.22563005E-02, 8.20842133E+01
103116, -1.41749024E+00, -6.29441626E-02, 8.20842209E+01
103117, -1.40801698E+00, -6.31241910E-02, 8.22570038E+01
103118, -1.25745475E+00, -3.25767398E-02, 8.22570038E+01
103119, -1.26170355E+00, -3.24184540E-02, 8.21706085E+01
103120, -1.41278004E+00, -6.30368423E-02, 8.21706085E+01
103121, -1.40321171E+00, -6.32067453E-02, 8.23433151E+01
103122, -1.25316852E+00, -3.27314539E-02, 8.23433075E+01
103123, -1.25745475E+00, -3.25767398E-02, 8.22570038E+01
103124, -1.40801698E+00, -6.31241910E-02, 8.22570038E+01
103125, -1.39836728E+00, -6.32853024E-02, 8.24296188E+01
103126, -1.24884724E+00, -3.28832585E-02, 8.24296188E+01
103127, -1.25316852E+00, -3.27314539E-02, 8.23433075E+01
103128, -1.40321171E+00, -6.32067453E-02, 8.23433151E+01
103129, -1.39348131E+00, -6.33596424E-02, 8.25159302E+01
103130, -1.24448872E+00, -3.30320084E-02, 8.25159225E+01
103131, -1.24884724E+00, -3.28832585E-02, 8.24296188E+01
103132, -1.39836728E+00, -6.32853024E-02, 8.24296188E+01
103133, -1.38855142E+00, -6.34295643E-02, 8.26022339E+01
103134, -1.24009097E+00, -3.31775527E-02, 8.26022263E+01
103135, -1.24448872E+00, -3.30320084E-02, 8.25159225E+01
103136, -1.39348131E+00, -6.33596424E-02, 8.25159302E+01
103137, -1.38357521E+00, -6.34948555E-02, 8.26885376E+01
103138, -1.23565173E+00, -3.33197471E-02, 8.26885300E+01
103139, -1.24009097E+00, -3.31775527E-02, 8.26022263E+01
103140, -1.38855142E+00, -6.34295643E-02, 8.26022339E+01
103141, -1.37855029E+00, -6.35553040E-02, 8.27748337E+01
103142, -1.23116899E+00, -3.34584470E-02, 8.27748260E+01
103143, -1.23565173E+00, -3.33197471E-02, 8.26885300E+01
103144, -1.38357521E+00, -6.34948555E-02, 8.26885376E+01
103145, -1.37347430E+00, -6.36107046E-02, 8.28611298E+01
103146, -1.22664052E+00, -3.35935028E-02, 8.28611221E+01
103147, -1.23116899E+00, -3.34584470E-02, 8.27748260E+01
103148, -1.37855029E+00, -6.35553040E-02, 8.27748337E+01
103149, -1.36834490E+00, -6.36608470E-02, 8.29474258E+01
103150, -1.22206425E+00, -3.37247672E-02, 8.29474182E+01
103151, -1.22664052E+00, -3.35935028E-02, 8.28611221E+01
103152, -1.37347430E+00, -6.36107046E-02, 8.28611298E+01
103153, -1.36315972E+00, -6.37055244E-02, 8.30337143E+01
103154, -1.21743810E+00, -3.38520948E-02, 8.30337143E+01
103155, -1.22206425E+00, -3.37247672E-02, 8.29474182E+01
103156, -1.36834490E+00, -6.36608470E-02, 8.29474258E+01
103157, -1.35791629E+00, -6.37445189E-02, 8.31200027E+01
103158, -1.21275985E+00, -3.39753414E-02, 8.31200027E+01
103159, -1.21743810E+00, -3.38520948E-02, 8.30337143E+01
103160, -1.36315972E+00, -6.37055244E-02, 8.30337143E+01
103161, -1.35261023E+00, -6.37784209E-02, 8.32064133E+01
103162, -1.20802588E+00, -3.40950880E-02, 8.32064133E+01
103163, -1.21275985E+00, -3.39753414E-02, 8.31200027E+01
103164, -1.35791629E+00, -6.37445189E-02, 8.31200027E+01
103165, -1.34725392E+00, -6.38076794E-02, 8.32928238E+01
103166, -1.20324707E+00, -3.42115378E-02, 8.32928238E+01
103167, -1.20802588E+00, -3.40950880E-02, 8.32064133E+01
103168, -1.35261023E+00, -6.37784209E-02, 8.32064133E+01
103169, -1.34184635E+00, -6.38320558E-02, 8.33792343E+01
103170, -1.19842232E+00, -3.43244979E-02, 8.33792267E+01
103171, -1.20324707E+00, -3.42115378E-02, 8.32928238E+01
103172, -1.34725392E+00, -6.38076794E-02, 8.32928238E+01
103173, -1.33638626E+00, -6.38513044E-02, 8.34656448E+01
103174, -1.19355064E+00, -3.44337728E-02, 8.34656296E+01
103175, -1.19842232E+00, -3.43244979E-02, 8.33792267E+01
103176, -1.34184635E+00, -6.38320558E-02, 8.33792343E+01
103177, -1.33087278E+00, -6.38651941E-02, 8.35520401E+01
103178, -1.18863112E+00, -3.45391649E-02, 8.35520325E+01
103179, -1.19355064E+00, -3.44337728E-02, 8.34656296E+01
103180, -1.33638626E+00, -6.38513044E-02, 8.34656448E+01
103181, -1.32530469E+00, -6.38734865E-02, 8.36384430E+01
103182, -1.18366283E+00, -3.46404826E-02, 8.36384354E+01
103183, -1.18863112E+00, -3.45391649E-02, 8.35520325E+01
103184, -1.33087278E+00, -6.38651941E-02, 8.35520401E+01
103185, -1.31968093E+00, -6.38759341E-02, 8.37248383E+01
103186, -1.17864460E+00, -3.47375283E-02, 8.37248306E+01
103187, -1.18366283E+00, -3.46404826E-02, 8.36384354E+01
103188, -1.32530469E+00, -6.38734865E-02, 8.36384430E+01
103189, -1.31400037E+00, -6.38723075E-02, 8.38112259E+01
103190, -1.17357564E+00, -3.48301083E-02, 8.38112259E+01
103191, -1.17864460E+00, -3.47375283E-02, 8.37248306E+01
103192, -1.31968093E+00, -6.38759341E-02, 8.37248383E+01
103193, -1.30826199E+00, -6.38623591E-02, 8.38976135E+01
103194, -1.16845489E+00, -3.49180288E-02, 8.38976135E+01
103195, -1.17357564E+00, -3.48301083E-02, 8.38112259E+01
103196, -1.31400037E+00, -6.38723075E-02, 8.38112259E+01
103197, -1.30246460E+00, -6.38458617E-02, 8.39840012E+01
103198, -1.16328126E+00, -3.50010944E-02, 8.39840012E+01
103199, -1.16845489E+00, -3.49180288E-02, 8.38976135E+01
103200, -1.30826199E+00, -6.38623591E-02, 8.38976135E+01
103201, -1.29715419E+00, -6.38261437E-02, 8.40625610E+01
103202, -1.15854263E+00, -3.50730727E-02, 8.40625610E+01
103203, -1.16328126E+00, -3.50010944E-02, 8.39840012E+01
103204, -1.30246460E+00, -6.38458617E-02, 8.39840012E+01
103205, -1.29181743E+00, -6.38027881E-02, 8.41411209E+01
103206, -1.15378040E+00, -3.51422457E-02, 8.41411133E+01
103207, -1.15854263E+00, -3.50730727E-02, 8.40625610E+01
103208, -1.29715419E+00, -6.38261437E-02, 8.40625610E+01
103209, -1.28644675E+00, -6.37752973E-02, 8.42196808E+01
103210, -1.14898777E+00, -3.52083026E-02, 8.42196732E+01
103211, -1.15378040E+00, -3.51422457E-02, 8.41411133E+01
103212, -1.29181743E+00, -6.38027881E-02, 8.41411209E+01
103213, -1.28103453E+00, -6.37431778E-02, 8.42982407E+01
103214, -1.14415800E+00, -3.52709321E-02, 8.42982254E+01
103215, -1.14898777E+00, -3.52083026E-02, 8.42196732E+01
103216, -1.28644675E+00, -6.37752973E-02, 8.42196808E+01
103217, -1.27557314E+00, -6.37059323E-02, 8.43767929E+01
103218, -1.13928420E+00, -3.53298169E-02, 8.43767776E+01
103219, -1.14415800E+00, -3.52709321E-02, 8.42982254E+01
103220, -1.28103453E+00, -6.37431778E-02, 8.42982407E+01
103221, -1.27005500E+00, -6.36630711E-02, 8.44553375E+01
103222, -1.13435965E+00, -3.53846466E-02, 8.44553223E+01
103223, -1.13928420E+00, -3.53298169E-02, 8.43767776E+01
103224, -1.27557314E+00, -6.37059323E-02, 8.43767929E+01
103225, -1.26447243E+00, -6.36140891E-02, 8.45338821E+01
103226, -1.12937742E+00, -3.54351075E-02, 8.45338669E+01
103227, -1.13435965E+00, -3.53846466E-02, 8.44553223E+01
103228, -1.27005500E+00, -6.36630711E-02, 8.44553375E+01
103229, -1.25881785E+00, -6.35585077E-02, 8.46124191E+01
103230, -1.12433075E+00, -3.54808867E-02, 8.46124115E+01
103231, -1.12937742E+00, -3.54351075E-02, 8.45338669E+01
103232, -1.26447243E+00, -6.36140891E-02, 8.45338821E+01
103233, -1.25308376E+00, -6.34958204E-02, 8.46909561E+01
103234, -1.11921287E+00, -3.55216731E-02, 8.46909485E+01
103235, -1.12433075E+00, -3.54808867E-02, 8.46124115E+01
103236, -1.25881785E+00, -6.35585077E-02, 8.46124191E+01
103237, -1.24726236E+00, -6.34255372E-02, 8.47694778E+01
103238, -1.11401707E+00, -3.55571545E-02, 8.47694778E+01
103239, -1.11921287E+00, -3.55216731E-02, 8.46909485E+01
103240, -1.25308376E+00, -6.34958204E-02, 8.46909561E+01
103241, -1.24134624E+00, -6.33471646E-02, 8.48479996E+01
103242, -1.10873634E+00, -3.55870146E-02, 8.48479996E+01
103243, -1.11401707E+00, -3.55571545E-02, 8.47694778E+01
103244, -1.24726236E+00, -6.34255372E-02, 8.47694778E+01
103245, -1.23537159E+00, -6.32630140E-02, 8.49264832E+01
103246, -1.10340411E+00, -3.56127005E-02, 8.49264832E+01
103247, -1.10873634E+00, -3.55870146E-02, 8.48479996E+01
103248, -1.24134624E+00, -6.33471646E-02, 8.48479996E+01
103249, -1.22936493E+00, -6.31749463E-02, 8.50049744E+01
103250, -1.09804321E+00, -3.56354360E-02, 8.50049591E+01
103251, -1.10340411E+00, -3.56127005E-02, 8.49264832E+01
103252, -1.23537159E+00, -6.32630140E-02, 8.49264832E+01
103253, -1.22331035E+00, -6.30818978E-02, 8.50834503E+01
103254, -1.09263945E+00, -3.56545345E-02, 8.50834351E+01
103255, -1.09804321E+00, -3.56354360E-02, 8.50049591E+01
103256, -1.22936493E+00, -6.31749463E-02, 8.50049744E+01
103257, -1.21719194E+00, -6.29828032E-02, 8.51619263E+01
103258, -1.08717853E+00, -3.56693118E-02, 8.51619034E+01
103259, -1.09263945E+00, -3.56545345E-02, 8.50834351E+01
103260, -1.22331035E+00, -6.30818978E-02, 8.50834503E+01
103261, -1.21099389E+00, -6.28765858E-02, 8.52403946E+01
103262, -1.08164638E+00, -3.56790833E-02, 8.52403717E+01
103263, -1.08717853E+00, -3.56693118E-02, 8.51619034E+01
103264, -1.21719194E+00, -6.29828032E-02, 8.51619263E+01
103265, -1.20470029E+00, -6.27621878E-02, 8.53188553E+01
103266, -1.07602871E+00, -3.56831644E-02, 8.53188324E+01
103267, -1.08164638E+00, -3.56790833E-02, 8.52403717E+01
103268, -1.21099389E+00, -6.28765858E-02, 8.52403946E+01
103269, -1.19829529E+00, -6.26385380E-02, 8.53973083E+01
103270, -1.07031137E+00, -3.56808705E-02, 8.53972855E+01
103271, -1.07602871E+00, -3.56831644E-02, 8.53188324E+01
103272, -1.20470029E+00, -6.27621878E-02, 8.53188553E+01
103273, -1.19176310E+00, -6.25045765E-02, 8.54757538E+01
103274, -1.06448024E+00, -3.56715182E-02, 8.54757309E+01
103275, -1.07031137E+00, -3.56808705E-02, 8.53972855E+01
103276, -1.19829529E+00, -6.26385380E-02, 8.53973083E+01
103277, -1.18508786E+00, -6.23592306E-02, 8.55541840E+01
103278, -1.05852109E+00, -3.56544265E-02, 8.55541611E+01
103279, -1.06448024E+00, -3.56715182E-02, 8.54757309E+01
103280, -1.19176310E+00, -6.25045765E-02, 8.54757538E+01
103281, -1.17825388E+00, -6.22014533E-02, 8.56325989E+01
103282, -1.05241978E+00, -3.56289093E-02, 8.56325912E+01
103283, -1.05852109E+00, -3.56544265E-02, 8.55541611E+01
103284, -1.18508786E+00, -6.23592306E-02, 8.55541840E+01
103285, -1.17124527E+00, -6.20301683E-02, 8.57109985E+01
103286, -1.04616219E+00, -3.55942854E-02, 8.57109985E+01
103287, -1.05241978E+00, -3.56289093E-02, 8.56325912E+01
103288, -1.17825388E+00, -6.22014533E-02, 8.56325989E+01
103289, -1.16469467E+00, -6.18636609E-02, 8.57830658E+01
103290, -1.04031521E+00, -3.55562074E-02, 8.57830505E+01
103291, -1.04616219E+00, -3.55942854E-02, 8.57109985E+01
103292, -1.17124527E+00, -6.20301683E-02, 8.57109985E+01
103293, -1.15808672E+00, -6.16913922E-02, 8.58551254E+01
103294, -1.03441691E+00, -3.55139571E-02, 8.58550949E+01
103295, -1.04031521E+00, -3.55562074E-02, 8.57830505E+01
103296, -1.16469467E+00, -6.18636609E-02, 8.57830658E+01
103297, -1.15140319E+00, -6.15122821E-02, 8.59271698E+01
103298, -1.02845103E+00, -3.54668768E-02, 8.59271393E+01
103299, -1.03441691E+00, -3.55139571E-02, 8.58550949E+01
103300, -1.15808672E+00, -6.16913922E-02, 8.58551254E+01
103301, -1.14462626E+00, -6.13252502E-02, 8.59992142E+01
103302, -1.02240146E+00, -3.54143083E-02, 8.59991760E+01
103303, -1.02845103E+00, -3.54668768E-02, 8.59271393E+01
103304, -1.15140319E+00, -6.15122821E-02, 8.59271698E+01
103305, -1.13773757E+00, -6.11292273E-02, 8.60712509E+01
103306, -1.01625192E+00, -3.53555959E-02, 8.60711975E+01
103307, -1.02240146E+00, -3.54143083E-02, 8.59991760E+01
103308, -1.14462626E+00, -6.13252502E-02, 8.59992142E+01
103309, -1.13071924E+00, -6.09231294E-02, 8.61432648E+01
103310, -1.00998640E+00, -3.52900829E-02, 8.61432114E+01
103311, -1.01625192E+00, -3.53555959E-02, 8.60711975E+01
103312, -1.13773757E+00, -6.11292273E-02, 8.60712509E+01
103313, -1.12355315E+00, -6.07058871E-02, 8.62152710E+01
103314, -1.00358862E+00, -3.52171148E-02, 8.62152176E+01
103315, -1.00998640E+00, -3.52900829E-02, 8.61432114E+01
103316, -1.13071924E+00, -6.09231294E-02, 8.61432648E+01
103317, -1.11622149E+00, -6.04764241E-02, 8.62872620E+01
103318, -9.97042417E-01, -3.51360319E-02, 8.62872086E+01
103319, -1.00358862E+00, -3.52171148E-02, 8.62152176E+01
103320, -1.12355315E+00, -6.07058871E-02, 8.62152710E+01
103321, -1.10870612E+00, -6.02336750E-02, 8.63592300E+01
103322, -9.90331829E-01, -3.50461863E-02, 8.63591843E+01
103323, -9.97042417E-01, -3.51360319E-02, 8.62872086E+01
103324, -1.11622149E+00, -6.04764241E-02, 8.62872620E+01
103325, -1.10098928E+00, -5.99765666E-02, 8.64311752E+01
103326, -9.83440727E-01, -3.49469204E-02, 8.64311447E+01
103327, -9.90331829E-01, -3.50461863E-02, 8.63591843E+01
103328, -1.10870612E+00, -6.02336750E-02, 8.63592300E+01
103329, -1.09305298E+00, -5.97040355E-02, 8.65031052E+01
103330, -9.76353109E-01, -3.48375840E-02, 8.65030823E+01
103331, -9.83440727E-01, -3.49469204E-02, 8.64311447E+01
103332, -1.10098928E+00, -5.99765666E-02, 8.64311752E+01
103333, -1.08487951E+00, -5.94150219E-02, 8.65749969E+01
103334, -9.69052881E-01, -3.47175245E-02, 8.65749969E+01
103335, -9.76353109E-01, -3.48375840E-02, 8.65030823E+01
103336, -1.09305298E+00, -5.97040355E-02, 8.65031052E+01
103337, -1.07717950E+00, -5.91375809E-02, 8.66415901E+01
103338, -9.62179958E-01, -3.45998900E-02, 8.66415634E+01
103339, -9.69052881E-01, -3.47175245E-02, 8.65749969E+01
103340, -1.08487951E+00, -5.94150219E-02, 8.65749969E+01
103341, -1.06943142E+00, -5.88553436E-02, 8.67081757E+01
103342, -9.55264121E-01, -3.44787817E-02, 8.67081261E+01
103343, -9.62179958E-01, -3.45998900E-02, 8.66415634E+01
103344, -1.07717950E+00, -5.91375809E-02, 8.66415901E+01
103345, -1.06160271E+00, -5.85663412E-02, 8.67747498E+01
103346, -9.48276102E-01, -3.43529983E-02, 8.67746811E+01
103347, -9.55264121E-01, -3.44787817E-02, 8.67081261E+01
103348, -1.06943142E+00, -5.88553436E-02, 8.67081757E+01
103349, -1.05366075E+00, -5.82686011E-02, 8.68413162E+01
103350, -9.41186696E-01, -3.42213315E-02, 8.68412208E+01
103351, -9.48276102E-01, -3.43529983E-02, 8.67746811E+01
103352, -1.06160271E+00, -5.85663412E-02, 8.67747498E+01
103353, -1.04557294E+00, -5.79601619E-02, 8.69078598E+01
103354, -9.33966696E-01, -3.40825748E-02, 8.69077530E+01
103355, -9.41186696E-01, -3.42213315E-02, 8.68412208E+01
103356, -1.05366075E+00, -5.82686011E-02, 8.68413162E+01
103357, -1.03730661E+00, -5.76390606E-02, 8.69743805E+01
103358, -9.26586837E-01, -3.39355254E-02, 8.69742584E+01
103359, -9.33966696E-01, -3.40825748E-02, 8.69077530E+01
103360, -1.04557294E+00, -5.79601619E-02, 8.69078598E+01
103361, -1.02882933E+00, -5.73033393E-02, 8.70408783E+01
103362, -9.19018030E-01, -3.37789860E-02, 8.70407486E+01
103363, -9.26586837E-01, -3.39355254E-02, 8.69742584E+01
103364, -1.03730661E+00, -5.76390606E-02, 8.69743805E+01
103365, -1.02010888E+00, -5.69510516E-02, 8.71073456E+01
103366, -9.11231220E-01, -3.36117503E-02, 8.71072159E+01
103367, -9.19018030E-01, -3.37789860E-02, 8.70407486E+01
103368, -1.02882933E+00, -5.73033393E-02, 8.70408783E+01
103369, -1.01111293E+00, -5.65802548E-02, 8.71737747E+01
103370, -9.03197468E-01, -3.34326271E-02, 8.71736526E+01
103371, -9.11231220E-01, -3.36117503E-02, 8.71072159E+01
103372, -1.02010888E+00, -5.69510516E-02, 8.71073456E+01
103373, -1.00180947E+00, -5.61890118E-02, 8.72401581E+01
103374, -8.94887894E-01, -3.32404236E-02, 8.72400513E+01
103375, -9.03197468E-01, -3.34326271E-02, 8.71736526E+01
103376, -1.01111293E+00, -5.65802548E-02, 8.71737747E+01
103377, -9.92166698E-01, -5.57754058E-02, 8.73064957E+01
103378, -8.86273771E-01, -3.30339502E-02, 8.73064117E+01
103379, -8.94887894E-01, -3.32404236E-02, 8.72400513E+01
103380, -1.00180947E+00, -5.61890118E-02, 8.72401581E+01
103381, -9.82152969E-01, -5.53375297E-02, 8.73727798E+01
103382, -8.77326519E-01, -3.28120282E-02, 8.73727341E+01
103383, -8.86273771E-01, -3.30339502E-02, 8.73064117E+01
103384, -9.92166698E-01, -5.57754058E-02, 8.73064957E+01
103385, -9.71736730E-01, -5.48734758E-02, 8.74390030E+01
103386, -8.68017614E-01, -3.25734802E-02, 8.74390030E+01
103387, -8.77326519E-01, -3.28120282E-02, 8.73727341E+01
103388, -9.82152969E-01, -5.53375297E-02, 8.73727798E+01
103389, -9.62085664E-01, -5.44440672E-02, 8.75010910E+01
103390, -8.59410673E-01, -3.23534059E-02, 8.75009995E+01
103391, -8.68017614E-01, -3.25734802E-02, 8.74390030E+01
103392, -9.71736730E-01, -5.48734758E-02, 8.74390030E+01
103393, -9.52921003E-01, -5.40431719E-02, 8.75632553E+01
103394, -8.51239025E-01, -3.21505750E-02, 8.75630646E+01
103395, -8.59410673E-01, -3.23534059E-02, 8.75009995E+01
103396, -9.62085664E-01, -5.44440672E-02, 8.75010910E+01
103397, -9.44038421E-01, -5.36582321E-02, 8.76254654E+01
103398, -8.43320161E-01, -3.19572436E-02, 8.76251602E+01
103399, -8.51239025E-01, -3.21505750E-02, 8.75630646E+01
103400, -9.52921003E-01, -5.40431719E-02, 8.75632553E+01
103401, -9.35233414E-01, -5.32766860E-02, 8.76876831E+01
103402, -8.35471511E-01, -3.17656705E-02, 8.76872635E+01
103403, -8.43320161E-01, -3.19572436E-02, 8.76251602E+01
103404, -9.44038421E-01, -5.36582321E-02, 8.76254654E+01
103405, -9.26301658E-01, -5.28859850E-02, 8.77498856E+01
103406, -8.27510745E-01, -3.15681286E-02, 8.77493553E+01
103407, -8.35471511E-01, -3.17656705E-02, 8.76872635E+01
103408, -9.35233414E-01, -5.32766860E-02, 8.76876831E+01
103409, -9.17039484E-01, -5.24736177E-02, 8.78120346E+01
103410, -8.19256097E-01, -3.13569074E-02, 8.78114090E+01
103411, -8.27510745E-01, -3.15681286E-02, 8.77493553E+01
103412, -9.26301658E-01, -5.28859850E-02, 8.77498856E+01
103413, -9.07244325E-01, -5.20271305E-02, 8.78741074E+01
103414, -8.10526222E-01, -3.11243124E-02, 8.78733940E+01
103415, -8.19256097E-01, -3.13569074E-02, 8.78114090E+01
103416, -9.17039484E-01, -5.24736177E-02, 8.78120346E+01
103417, -8.96715254E-01, -5.15341665E-02, 8.79360580E+01
103418, -8.01140786E-01, -3.08626844E-02, 8.79352837E+01
103419, -8.10526222E-01, -3.11243124E-02, 8.78733940E+01
103420, -9.07244325E-01, -5.20271305E-02, 8.78741074E+01
103421, -8.85254264E-01, -5.09825199E-02, 8.79978409E+01
103422, -7.90920884E-01, -3.05644069E-02, 8.79970398E+01
103423, -8.01140786E-01, -3.08626844E-02, 8.79352837E+01
103424, -8.96715254E-01, -5.15341665E-02, 8.79360580E+01
103425, -8.72667462E-01, -5.03602270E-02, 8.80594025E+01
103426, -7.79690087E-01, -3.02219568E-02, 8.80586243E+01
103427, -7.90920884E-01, -3.05644069E-02, 8.79970398E+01
103428, -8.85254264E-01, -5.09825199E-02, 8.79978409E+01
103429, -8.58767301E-01, -4.96556889E-02, 8.81206741E+01
103430, -7.67275601E-01, -2.98279505E-02, 8.81199722E+01
103431, -7.79690087E-01, -3.02219568E-02, 8.80586243E+01
103432, -8.72667462E-01, -5.03602270E-02, 8.80594025E+01
103433, -8.43375087E-01, -4.88578211E-02, 8.81815948E+01
103434, -7.53510296E-01, -2.93752216E-02, 8.81810379E+01
103435, -7.67275601E-01, -2.98279505E-02, 8.81199722E+01
103436, -8.58767301E-01, -4.96556889E-02, 8.81206741E+01
103437, -8.26324165E-01, -4.79562543E-02, 8.82420654E+01
103438, -7.38234937E-01, -2.88569172E-02, 8.82417374E+01
103439, -7.53510296E-01, -2.93752216E-02, 8.81810379E+01
103440, -8.43375087E-01, -4.88578211E-02, 8.81815948E+01
103441, -8.07463318E-01, -4.69415505E-02, 8.83020020E+01
103442, -7.21300781E-01, -2.82666153E-02, 8.83020020E+01
103443, -7.38234937E-01, -2.88569172E-02, 8.82417374E+01
103444, -8.26324165E-01, -4.79562543E-02, 8.82420654E+01
103445, -7.21300781E-01, -2.82666153E-02, 8.83020020E+01
103446, -8.07463318E-01, -4.69415505E-02, 8.83020020E+01
103447, -7.89171935E-01, -4.59459406E-02, 8.83555832E+01
103448, -7.05117434E-01, -2.76922910E-02, 8.83550873E+01
103449, -7.05117434E-01, -2.76922910E-02, 8.83550873E+01
103450, -7.89171935E-01, -4.59459406E-02, 8.83555832E+01
103451, -7.70011842E-01, -4.48955167E-02, 8.84088593E+01
103452, -6.88154489E-01, -2.70836949E-02, 8.84079246E+01
103453, -6.88154489E-01, -2.70836949E-02, 8.84079246E+01
103454, -7.70011842E-01, -4.48955167E-02, 8.84088593E+01
103455, -7.49998301E-01, -4.37911935E-02, 8.84618187E+01
103456, -6.70421839E-01, -2.64412314E-02, 8.84605141E+01
103457, -6.70421839E-01, -2.64412314E-02, 8.84605141E+01
103458, -7.49998301E-01, -4.37911935E-02, 8.84618187E+01
103459, -7.29146659E-01, -4.26339023E-02, 8.85144539E+01
103460, -6.51929855E-01, -2.57653287E-02, 8.85128364E+01
103461, -6.51929855E-01, -2.57653287E-02, 8.85128364E+01
103462, -7.29146659E-01, -4.26339023E-02, 8.85144539E+01
103463, -7.07472653E-01, -4.14245930E-02, 8.85667572E+01
103464, -6.32689357E-01, -2.50564357E-02, 8.85648918E+01
103465, -6.32689357E-01, -2.50564357E-02, 8.85648918E+01
103466, -7.07472653E-01, -4.14245930E-02, 8.85667572E+01
103467, -6.84992463E-01, -4.01642546E-02, 8.86187134E+01
103468, -6.12711608E-01, -2.43150182E-02, 8.86166649E+01
103469, -6.12711608E-01, -2.43150182E-02, 8.86166649E+01
103470, -6.84992463E-01, -4.01642546E-02, 8.86187134E+01
103471, -6.61722511E-01, -3.88538856E-02, 8.86703186E+01
103472, -5.92008143E-01, -2.35415576E-02, 8.86681557E+01
103473, -5.92008143E-01, -2.35415576E-02, 8.86681557E+01
103474, -6.61722511E-01, -3.88538856E-02, 8.86703186E+01
103475, -6.37679547E-01, -3.74945104E-02, 8.87215729E+01
103476, -5.70590824E-01, -2.27365503E-02, 8.87193489E+01
103477, -5.70590824E-01, -2.27365503E-02, 8.87193489E+01
103478, -6.37679547E-01, -3.74945104E-02, 8.87215729E+01
103479, -6.12880409E-01, -3.60871572E-02, 8.87724609E+01
103480, -5.48471839E-01, -2.19005095E-02, 8.87702446E+01
103481, -5.48471839E-01, -2.19005095E-02, 8.87702446E+01
103482, -6.12880409E-01, -3.60871572E-02, 8.87724609E+01
103483, -5.87342113E-01, -3.46328746E-02, 8.88229828E+01
103484, -5.25663525E-01, -2.10339535E-02, 8.88208351E+01
103485, -5.25663525E-01, -2.10339535E-02, 8.88208351E+01
103486, -5.87342113E-01, -3.46328746E-02, 8.88229828E+01
103487, -5.61081738E-01, -3.31327105E-02, 8.88731308E+01
103488, -5.02178490E-01, -2.01374125E-02, 8.88711128E+01
103489, -5.02178490E-01, -2.01374125E-02, 8.88711128E+01
103490, -5.61081738E-01, -3.31327105E-02, 8.88731308E+01
103491, -5.34116357E-01, -3.15877171E-02, 8.89228973E+01
103492, -4.78029832E-01, -1.92114422E-02, 8.89210701E+01
103493, -4.78029832E-01, -1.92114422E-02, 8.89210701E+01
103494, -5.34116357E-01, -3.15877171E-02, 8.89228973E+01
103495, -5.06463081E-01, -2.99989423E-02, 8.89722900E+01
103496, -4.53229874E-01, -1.82565651E-02, 8.89707146E+01
103497, -4.53229874E-01, -1.82565651E-02, 8.89707146E+01
103498, -5.06463081E-01, -2.99989423E-02, 8.89722900E+01
103499, -4.78138969E-01, -2.83674477E-02, 8.90212936E+01
103500, -4.27791565E-01, -1.72733306E-02, 8.90200310E+01
103501, -4.27791565E-01, -1.72733306E-02, 8.90200310E+01
103502, -4.78138969E-01, -2.83674477E-02, 8.90212936E+01
103503, -4.49160576E-01, -2.66942550E-02, 8.90699158E+01
103504, -4.01727930E-01, -1.62622952E-02, 8.90690155E+01
103505, -4.01727930E-01, -1.62622952E-02, 8.90690155E+01
103506, -4.49160576E-01, -2.66942550E-02, 8.90699158E+01
103507, -4.19544875E-01, -2.49804137E-02, 8.91181526E+01
103508, -3.75052005E-01, -1.52240130E-02, 8.91176758E+01
103509, -3.75052005E-01, -1.52240130E-02, 8.91176758E+01
103510, -4.19544875E-01, -2.49804137E-02, 8.91181526E+01
103511, -3.89307752E-01, -2.32269056E-02, 8.91660004E+01
103512, -3.47775638E-01, -1.41589949E-02, 8.91660004E+01
**
***********
** ELEMENTS
***********
*ELEMENT, TYPE=C3D20
34850,  12001,  12010,  1340,  1337,  12002,  12089,  1354,  1338,  91736,  91737,  91738,  91716,  92184,  92187,  92186,  
91718,  101497,  101498,  101499,  101500
34851,  12000,  12009,  12010,  12001,  12003,  12090,  12089,  12002,  91734,  91735,  91736,  91713,  92182,  92185,  92184,  
91715,  101501,  101502,  101503,  101504
34852,  11999,  12008,  12009,  12000,  12004,  12091,  12090,  12003,  91732,  91733,  91734,  91710,  92180,  92183,  92182,  
91712,  101505,  101506,  101507,  101508
34853,  1319,  1322,  12008,  11999,  1320,  1339,  12091,  12004,  91255,  91731,  91732,  91707,  91725,  92181,  92180,  
91709,  101509,  101510,  101511,  101512
34854,  11904,  11913,  1322,  1319,  11905,  12005,  1339,  1320,  91253,  91254,  91255,  91233,  91723,  91726,  91725,  
91235,  101513,  101514,  101515,  101516
34855,  11903,  11912,  11913,  11904,  11906,  12006,  12005,  11905,  91251,  91252,  91253,  91230,  91721,  91724,  91723,  
91232,  101517,  101518,  101519,  101520
34856,  11902,  11911,  11912,  11903,  11907,  12007,  12006,  11906,  91249,  91250,  91251,  91227,  91719,  91722,  91721,  
91229,  101521,  101522,  101523,  101524
34857,  1303,  1306,  11911,  11902,  1304,  1321,  12007,  11907,  90786,  91248,  91249,  91224,  91242,  91720,  91719,  
91226,  101525,  101526,  101527,  101528
34858,  11817,  11826,  1306,  1303,  11818,  11908,  1321,  1304,  90784,  90785,  90786,  90764,  91240,  91243,  91242,  
90766,  101529,  101530,  101531,  101532
34859,  11816,  11825,  11826,  11817,  11819,  11909,  11908,  11818,  90782,  90783,  90784,  90761,  91238,  91241,  91240,  
90763,  101533,  101534,  101535,  101536
34860,  11815,  11824,  11825,  11816,  11820,  11910,  11909,  11819,  90780,  90781,  90782,  90758,  91236,  91239,  91238,  
90760,  101537,  101538,  101539,  101540
34861,  1285,  1288,  11824,  11815,  1286,  1305,  11910,  11820,  90303,  90779,  90780,  90755,  90773,  91237,  91236,  
90757,  101541,  101542,  101543,  101544
34862,  11720,  11729,  1288,  1285,  11721,  11821,  1305,  1286,  90301,  90302,  90303,  90281,  90771,  90774,  90773,  
90283,  101545,  101546,  101547,  101548
34863,  11719,  11728,  11729,  11720,  11722,  11822,  11821,  11721,  90299,  90300,  90301,  90278,  90769,  90772,  90771,  
90280,  101549,  101550,  101551,  101552
34864,  11718,  11727,  11728,  11719,  11723,  11823,  11822,  11722,  90297,  90298,  90299,  90275,  90767,  90770,  90769,  
90277,  101553,  101554,  101555,  101556
34865,  1269,  1272,  11727,  11718,  1270,  1287,  11823,  11723,  89834,  90296,  90297,  90272,  90290,  90768,  90767,  
90274,  101557,  101558,  101559,  101560
34866,  11633,  11642,  1272,  1269,  11634,  11724,  1287,  1270,  89832,  89833,  89834,  89812,  90288,  90291,  90290,  
89814,  101561,  101562,  101563,  101564
34867,  11632,  11641,  11642,  11633,  11635,  11725,  11724,  11634,  89830,  89831,  89832,  89809,  90286,  90289,  90288,  
89811,  101565,  101566,  101567,  101568
34868,  11631,  11640,  11641,  11632,  11636,  11726,  11725,  11635,  89828,  89829,  89830,  89806,  90284,  90287,  90286,  
89808,  101569,  101570,  101571,  101572
34869,  1251,  1254,  11640,  11631,  1252,  1271,  11726,  11636,  89351,  89827,  89828,  89803,  89821,  90285,  90284,  
89805,  101573,  101574,  101575,  101576
34870,  11536,  11545,  1254,  1251,  11537,  11637,  1271,  1252,  89349,  89350,  89351,  89329,  89819,  89822,  89821,  
89331,  101577,  101578,  101579,  101580
34871,  11535,  11544,  11545,  11536,  11538,  11638,  11637,  11537,  89347,  89348,  89349,  89326,  89817,  89820,  89819,  
89328,  101581,  101582,  101583,  101584
34872,  11534,  11543,  11544,  11535,  11539,  11639,  11638,  11538,  89345,  89346,  89347,  89323,  89815,  89818,  89817,  
89325,  101585,  101586,  101587,  101588
34873,  1235,  1238,  11543,  11534,  1236,  1253,  11639,  11539,  88882,  89344,  89345,  89320,  89338,  89816,  89815,  
89322,  101589,  101590,  101591,  101592
34874,  11449,  11458,  1238,  1235,  11450,  11540,  1253,  1236,  88880,  88881,  88882,  88860,  89336,  89339,  89338,  
88862,  101593,  101594,  101595,  101596
34875,  11448,  11457,  11458,  11449,  11451,  11541,  11540,  11450,  88878,  88879,  88880,  88857,  89334,  89337,  89336,  
88859,  101597,  101598,  101599,  101600
34876,  11447,  11456,  11457,  11448,  11452,  11542,  11541,  11451,  88876,  88877,  88878,  88854,  89332,  89335,  89334,  
88856,  101601,  101602,  101603,  101604
34877,  1217,  1220,  11456,  11447,  1218,  1237,  11542,  11452,  88399,  88875,  88876,  88851,  88869,  89333,  89332,  
88853,  101605,  101606,  101607,  101608
34878,  11352,  11361,  1220,  1217,  11353,  11453,  1237,  1218,  88397,  88398,  88399,  88377,  88867,  88870,  88869,  
88379,  101609,  101610,  101611,  101612
34879,  11351,  11360,  11361,  11352,  11354,  11454,  11453,  11353,  88395,  88396,  88397,  88374,  88865,  88868,  88867,  
88376,  101613,  101614,  101615,  101616
34880,  11350,  11359,  11360,  11351,  11355,  11455,  11454,  11354,  88393,  88394,  88395,  88371,  88863,  88866,  88865,  
88373,  101617,  101618,  101619,  101620
34881,  1201,  1204,  11359,  11350,  1202,  1219,  11455,  11355,  87930,  88392,  88393,  88368,  88386,  88864,  88863,  
88370,  101621,  101622,  101623,  101624
34882,  11265,  11274,  1204,  1201,  11266,  11356,  1219,  1202,  87928,  87929,  87930,  87908,  88384,  88387,  88386,  
87910,  101625,  101626,  101627,  101628
34883,  11264,  11273,  11274,  11265,  11267,  11357,  11356,  11266,  87926,  87927,  87928,  87905,  88382,  88385,  88384,  
87907,  101629,  101630,  101631,  101632
34884,  11263,  11272,  11273,  11264,  11268,  11358,  11357,  11267,  87924,  87925,  87926,  87902,  88380,  88383,  88382,  
87904,  101633,  101634,  101635,  101636
34885,  1183,  1186,  11272,  11263,  1184,  1203,  11358,  11268,  87447,  87923,  87924,  87899,  87917,  88381,  88380,  
87901,  101637,  101638,  101639,  101640
34886,  11168,  11177,  1186,  1183,  11169,  11269,  1203,  1184,  87445,  87446,  87447,  87425,  87915,  87918,  87917,  
87427,  101641,  101642,  101643,  101644
34887,  11167,  11176,  11177,  11168,  11170,  11270,  11269,  11169,  87443,  87444,  87445,  87422,  87913,  87916,  87915,  
87424,  101645,  101646,  101647,  101648
34888,  11166,  11175,  11176,  11167,  11171,  11271,  11270,  11170,  87441,  87442,  87443,  87419,  87911,  87914,  87913,  
87421,  101649,  101650,  101651,  101652
34889,  1167,  1170,  11175,  11166,  1168,  1185,  11271,  11171,  86978,  87440,  87441,  87416,  87434,  87912,  87911,  
87418,  101653,  101654,  101655,  101656
34890,  11081,  11090,  1170,  1167,  11082,  11172,  1185,  1168,  86976,  86977,  86978,  86956,  87432,  87435,  87434,  
86958,  101657,  101658,  101659,  101660
34891,  11080,  11089,  11090,  11081,  11083,  11173,  11172,  11082,  86974,  86975,  86976,  86953,  87430,  87433,  87432,  
86955,  101661,  101662,  101663,  101664
34892,  11079,  11088,  11089,  11080,  11084,  11174,  11173,  11083,  86972,  86973,  86974,  86950,  87428,  87431,  87430,  
86952,  101665,  101666,  101667,  101668
34893,  1149,  1152,  11088,  11079,  1150,  1169,  11174,  11084,  86495,  86971,  86972,  86947,  86965,  87429,  87428,  
86949,  101669,  101670,  101671,  101672
34894,  10984,  10993,  1152,  1149,  10985,  11085,  1169,  1150,  86493,  86494,  86495,  86473,  86963,  86966,  86965,  
86475,  101673,  101674,  101675,  101676
34895,  10983,  10992,  10993,  10984,  10986,  11086,  11085,  10985,  86491,  86492,  86493,  86470,  86961,  86964,  86963,  
86472,  101677,  101678,  101679,  101680
34896,  10982,  10991,  10992,  10983,  10987,  11087,  11086,  10986,  86489,  86490,  86491,  86467,  86959,  86962,  86961,  
86469,  101681,  101682,  101683,  101684
34897,  1133,  1136,  10991,  10982,  1134,  1151,  11087,  10987,  86026,  86488,  86489,  86464,  86482,  86960,  86959,  
86466,  101685,  101686,  101687,  101688
34898,  10897,  10906,  1136,  1133,  10898,  10988,  1151,  1134,  86024,  86025,  86026,  86004,  86480,  86483,  86482,  
86006,  101689,  101690,  101691,  101692
34899,  10896,  10905,  10906,  10897,  10899,  10989,  10988,  10898,  86022,  86023,  86024,  86001,  86478,  86481,  86480,  
86003,  101693,  101694,  101695,  101696
34900,  10895,  10904,  10905,  10896,  10900,  10990,  10989,  10899,  86020,  86021,  86022,  85998,  86476,  86479,  86478,  
86000,  101697,  101698,  101699,  101700
34901,  1115,  1118,  10904,  10895,  1116,  1135,  10990,  10900,  85543,  86019,  86020,  85995,  86013,  86477,  86476,  
85997,  101701,  101702,  101703,  101704
34902,  10800,  10809,  1118,  1115,  10801,  10901,  1135,  1116,  85541,  85542,  85543,  85521,  86011,  86014,  86013,  
85523,  101705,  101706,  101707,  101708
34903,  10799,  10808,  10809,  10800,  10802,  10902,  10901,  10801,  85539,  85540,  85541,  85518,  86009,  86012,  86011,  
85520,  101709,  101710,  101711,  101712
34904,  10798,  10807,  10808,  10799,  10803,  10903,  10902,  10802,  85537,  85538,  85539,  85515,  86007,  86010,  86009,  
85517,  101713,  101714,  101715,  101716
34905,  1099,  1102,  10807,  10798,  1100,  1117,  10903,  10803,  85074,  85536,  85537,  85512,  85530,  86008,  86007,  
85514,  101717,  101718,  101719,  101720
34906,  10713,  10722,  1102,  1099,  10714,  10804,  1117,  1100,  85072,  85073,  85074,  85052,  85528,  85531,  85530,  
85054,  101721,  101722,  101723,  101724
34907,  10712,  10721,  10722,  10713,  10715,  10805,  10804,  10714,  85070,  85071,  85072,  85049,  85526,  85529,  85528,  
85051,  101725,  101726,  101727,  101728
34908,  10711,  10720,  10721,  10712,  10716,  10806,  10805,  10715,  85068,  85069,  85070,  85046,  85524,  85527,  85526,  
85048,  101729,  101730,  101731,  101732
34909,  1081,  1084,  10720,  10711,  1082,  1101,  10806,  10716,  84591,  85067,  85068,  85043,  85061,  85525,  85524,  
85045,  101733,  101734,  101735,  101736
34910,  10616,  10625,  1084,  1081,  10617,  10717,  1101,  1082,  84589,  84590,  84591,  84569,  85059,  85062,  85061,  
84571,  101737,  101738,  101739,  101740
34911,  10615,  10624,  10625,  10616,  10618,  10718,  10717,  10617,  84587,  84588,  84589,  84566,  85057,  85060,  85059,  
84568,  101741,  101742,  101743,  101744
34912,  10614,  10623,  10624,  10615,  10619,  10719,  10718,  10618,  84585,  84586,  84587,  84563,  85055,  85058,  85057,  
84565,  101745,  101746,  101747,  101748
34913,  1065,  1068,  10623,  10614,  1066,  1083,  10719,  10619,  84122,  84584,  84585,  84560,  84578,  85056,  85055,  
84562,  101749,  101750,  101751,  101752
34914,  10529,  10538,  1068,  1065,  10530,  10620,  1083,  1066,  84120,  84121,  84122,  84100,  84576,  84579,  84578,  
84102,  101753,  101754,  101755,  101756
34915,  10528,  10537,  10538,  10529,  10531,  10621,  10620,  10530,  84118,  84119,  84120,  84097,  84574,  84577,  84576,  
84099,  101757,  101758,  101759,  101760
34916,  10527,  10536,  10537,  10528,  10532,  10622,  10621,  10531,  84116,  84117,  84118,  84094,  84572,  84575,  84574,  
84096,  101761,  101762,  101763,  101764
34917,  1047,  1050,  10536,  10527,  1048,  1067,  10622,  10532,  83639,  84115,  84116,  84091,  84109,  84573,  84572,  
84093,  101765,  101766,  101767,  101768
34918,  10432,  10441,  1050,  1047,  10433,  10533,  1067,  1048,  83637,  83638,  83639,  83617,  84107,  84110,  84109,  
83619,  101769,  101770,  101771,  101772
34919,  10431,  10440,  10441,  10432,  10434,  10534,  10533,  10433,  83635,  83636,  83637,  83614,  84105,  84108,  84107,  
83616,  101773,  101774,  101775,  101776
34920,  10430,  10439,  10440,  10431,  10435,  10535,  10534,  10434,  83633,  83634,  83635,  83611,  84103,  84106,  84105,  
83613,  101777,  101778,  101779,  101780
34921,  1031,  1034,  10439,  10430,  1032,  1049,  10535,  10435,  83170,  83632,  83633,  83608,  83626,  84104,  84103,  
83610,  101781,  101782,  101783,  101784
34922,  10345,  10354,  1034,  1031,  10346,  10436,  1049,  1032,  83168,  83169,  83170,  83148,  83624,  83627,  83626,  
83150,  101785,  101786,  101787,  101788
34923,  10344,  10353,  10354,  10345,  10347,  10437,  10436,  10346,  83166,  83167,  83168,  83145,  83622,  83625,  83624,  
83147,  101789,  101790,  101791,  101792
34924,  10343,  10352,  10353,  10344,  10348,  10438,  10437,  10347,  83164,  83165,  83166,  83142,  83620,  83623,  83622,  
83144,  101793,  101794,  101795,  101796
34925,  1013,  1016,  10352,  10343,  1014,  1033,  10438,  10348,  82687,  83163,  83164,  83139,  83157,  83621,  83620,  
83141,  101797,  101798,  101799,  101800
34926,  10248,  10257,  1016,  1013,  10249,  10349,  1033,  1014,  82685,  82686,  82687,  82665,  83155,  83158,  83157,  
82667,  101801,  101802,  101803,  101804
34927,  10247,  10256,  10257,  10248,  10250,  10350,  10349,  10249,  82683,  82684,  82685,  82662,  83153,  83156,  83155,  
82664,  101805,  101806,  101807,  101808
34928,  10246,  10255,  10256,  10247,  10251,  10351,  10350,  10250,  82681,  82682,  82683,  82659,  83151,  83154,  83153,  
82661,  101809,  101810,  101811,  101812
34929,  997,  1000,  10255,  10246,  998,  1015,  10351,  10251,  82218,  82680,  82681,  82656,  82674,  83152,  83151,  
82658,  101813,  101814,  101815,  101816
34930,  10161,  10170,  1000,  997,  10162,  10252,  1015,  998,  82216,  82217,  82218,  82196,  82672,  82675,  82674,  
82198,  101817,  101818,  101819,  101820
34931,  10160,  10169,  10170,  10161,  10163,  10253,  10252,  10162,  82214,  82215,  82216,  82193,  82670,  82673,  82672,  
82195,  101821,  101822,  101823,  101824
34932,  10159,  10168,  10169,  10160,  10164,  10254,  10253,  10163,  82212,  82213,  82214,  82190,  82668,  82671,  82670,  
82192,  101825,  101826,  101827,  101828
34933,  979,  982,  10168,  10159,  980,  999,  10254,  10164,  81735,  82211,  82212,  82187,  82205,  82669,  82668,  
82189,  101829,  101830,  101831,  101832
34934,  10064,  10073,  982,  979,  10065,  10165,  999,  980,  81733,  81734,  81735,  81713,  82203,  82206,  82205,  
81715,  101833,  101834,  101835,  101836
34935,  10063,  10072,  10073,  10064,  10066,  10166,  10165,  10065,  81731,  81732,  81733,  81710,  82201,  82204,  82203,  
81712,  101837,  101838,  101839,  101840
34936,  10062,  10071,  10072,  10063,  10067,  10167,  10166,  10066,  81729,  81730,  81731,  81707,  82199,  82202,  82201,  
81709,  101841,  101842,  101843,  101844
34937,  963,  966,  10071,  10062,  964,  981,  10167,  10067,  81261,  81728,  81729,  81704,  81722,  82200,  82199,  
81706,  101845,  101846,  101847,  101848
34938,  9977,  9986,  966,  963,  9978,  10068,  981,  964,  81259,  81260,  81261,  81239,  81720,  81723,  81722,  
81241,  101849,  101850,  101851,  101852
34939,  9976,  9985,  9986,  9977,  9979,  10069,  10068,  9978,  81257,  81258,  81259,  81236,  81718,  81721,  81720,  
81238,  101853,  101854,  101855,  101856
34940,  9975,  9984,  9985,  9976,  9980,  10070,  10069,  9979,  81255,  81256,  81257,  81233,  81716,  81719,  81718,  
81235,  101857,  101858,  101859,  101860
34941,  945,  948,  9984,  9975,  946,  965,  10070,  9980,  80727,  81254,  81255,  81230,  81248,  81717,  81716,  
81232,  101861,  101862,  101863,  101864
34942,  9875,  9885,  948,  945,  9876,  9981,  965,  946,  80725,  80726,  80727,  80702,  81246,  81249,  81248,  
80704,  101865,  101866,  101867,  101868
34943,  9874,  9884,  9885,  9875,  9877,  9982,  9981,  9876,  80723,  80724,  80725,  80699,  81244,  81247,  81246,  
80701,  101869,  101870,  101871,  101872
34944,  9873,  9883,  9884,  9874,  9878,  9983,  9982,  9877,  80721,  80722,  80723,  80696,  81242,  81245,  81244,  
80698,  101873,  101874,  101875,  101876
34945,  929,  932,  9883,  9873,  930,  947,  9983,  9878,  80145,  80720,  80721,  80693,  80713,  81243,  81242,  
80695,  101877,  101878,  101879,  101880
34946,  9773,  9785,  932,  929,  9774,  9879,  947,  930,  80143,  80144,  80145,  80118,  80711,  80714,  80713,  
80120,  101881,  101882,  101883,  101884
34947,  9772,  9784,  9785,  9773,  9775,  9880,  9879,  9774,  80141,  80142,  80143,  80115,  80709,  80712,  80711,  
80117,  101885,  101886,  101887,  101888
34948,  9771,  9783,  9784,  9772,  9776,  9881,  9880,  9775,  80139,  80140,  80141,  80112,  80707,  80710,  80709,  
80114,  101889,  101890,  101891,  101892
34949,  9770,  9782,  9783,  9771,  9777,  9882,  9881,  9776,  80137,  80138,  80139,  80109,  80705,  80708,  80707,  
80111,  101893,  101894,  101895,  101896
34950,  911,  914,  9782,  9770,  912,  931,  9882,  9777,  79542,  80136,  80137,  80106,  80129,  80706,  80705,  
80108,  101897,  101898,  101899,  101900
34951,  9658,  9670,  914,  911,  9659,  9778,  931,  912,  79540,  79541,  79542,  79515,  80127,  80130,  80129,  
79517,  101901,  101902,  101903,  101904
34952,  9657,  9669,  9670,  9658,  9660,  9779,  9778,  9659,  79538,  79539,  79540,  79512,  80125,  80128,  80127,  
79514,  101905,  101906,  101907,  101908
34953,  9656,  9668,  9669,  9657,  9661,  9780,  9779,  9660,  79536,  79537,  79538,  79509,  80123,  80126,  80125,  
79511,  101909,  101910,  101911,  101912
34954,  9655,  9667,  9668,  9656,  9662,  9781,  9780,  9661,  79534,  79535,  79536,  79506,  80121,  80124,  80123,  
79508,  101913,  101914,  101915,  101916
34955,  895,  898,  9667,  9655,  896,  913,  9781,  9662,  78955,  79533,  79534,  79503,  79526,  80122,  80121,  
79505,  101917,  101918,  101919,  101920
34956,  9555,  9567,  898,  895,  9556,  9663,  913,  896,  78953,  78954,  78955,  78928,  79524,  79527,  79526,  
78930,  101921,  101922,  101923,  101924
34957,  9554,  9566,  9567,  9555,  9557,  9664,  9663,  9556,  78951,  78952,  78953,  78925,  79522,  79525,  79524,  
78927,  101925,  101926,  101927,  101928
34958,  9553,  9565,  9566,  9554,  9558,  9665,  9664,  9557,  78949,  78950,  78951,  78922,  79520,  79523,  79522,  
78924,  101929,  101930,  101931,  101932
34959,  9552,  9564,  9565,  9553,  9559,  9666,  9665,  9558,  78947,  78948,  78949,  78919,  79518,  79521,  79520,  
78921,  101933,  101934,  101935,  101936
34960,  877,  880,  9564,  9552,  878,  897,  9666,  9559,  78352,  78946,  78947,  78916,  78939,  79519,  79518,  
78918,  101937,  101938,  101939,  101940
34961,  9440,  9452,  880,  877,  9441,  9560,  897,  878,  78350,  78351,  78352,  78325,  78937,  78940,  78939,  
78327,  101941,  101942,  101943,  101944
34962,  9439,  9451,  9452,  9440,  9442,  9561,  9560,  9441,  78348,  78349,  78350,  78322,  78935,  78938,  78937,  
78324,  101945,  101946,  101947,  101948
34963,  9438,  9450,  9451,  9439,  9443,  9562,  9561,  9442,  78346,  78347,  78348,  78319,  78933,  78936,  78935,  
78321,  101949,  101950,  101951,  101952
34964,  9437,  9449,  9450,  9438,  9444,  9563,  9562,  9443,  78344,  78345,  78346,  78316,  78931,  78934,  78933,  
78318,  101953,  101954,  101955,  101956
34965,  861,  864,  9449,  9437,  862,  879,  9563,  9444,  77765,  78343,  78344,  78313,  78336,  78932,  78931,  
78315,  101957,  101958,  101959,  101960
34966,  9337,  9349,  864,  861,  9338,  9445,  879,  862,  77763,  77764,  77765,  77738,  78334,  78337,  78336,  
77740,  101961,  101962,  101963,  101964
34967,  9336,  9348,  9349,  9337,  9339,  9446,  9445,  9338,  77761,  77762,  77763,  77735,  78332,  78335,  78334,  
77737,  101965,  101966,  101967,  101968
34968,  9335,  9347,  9348,  9336,  9340,  9447,  9446,  9339,  77759,  77760,  77761,  77732,  78330,  78333,  78332,  
77734,  101969,  101970,  101971,  101972
34969,  9334,  9346,  9347,  9335,  9341,  9448,  9447,  9340,  77757,  77758,  77759,  77729,  78328,  78331,  78330,  
77731,  101973,  101974,  101975,  101976
34970,  843,  846,  9346,  9334,  844,  863,  9448,  9341,  77162,  77756,  77757,  77726,  77749,  78329,  78328,  
77728,  101977,  101978,  101979,  101980
34971,  9222,  9234,  846,  843,  9223,  9342,  863,  844,  77160,  77161,  77162,  77135,  77747,  77750,  77749,  
77137,  101981,  101982,  101983,  101984
34972,  9221,  9233,  9234,  9222,  9224,  9343,  9342,  9223,  77158,  77159,  77160,  77132,  77745,  77748,  77747,  
77134,  101985,  101986,  101987,  101988
34973,  9220,  9232,  9233,  9221,  9225,  9344,  9343,  9224,  77156,  77157,  77158,  77129,  77743,  77746,  77745,  
77131,  101989,  101990,  101991,  101992
34974,  9219,  9231,  9232,  9220,  9226,  9345,  9344,  9225,  77154,  77155,  77156,  77126,  77741,  77744,  77743,  
77128,  101993,  101994,  101995,  101996
34975,  827,  830,  9231,  9219,  828,  845,  9345,  9226,  76575,  77153,  77154,  77123,  77146,  77742,  77741,  
77125,  101997,  101998,  101999,  102000
34976,  9119,  9131,  830,  827,  9120,  9227,  845,  828,  76573,  76574,  76575,  76548,  77144,  77147,  77146,  
76550,  102001,  102002,  102003,  102004
34977,  9118,  9130,  9131,  9119,  9121,  9228,  9227,  9120,  76571,  76572,  76573,  76545,  77142,  77145,  77144,  
76547,  102005,  102006,  102007,  102008
34978,  9117,  9129,  9130,  9118,  9122,  9229,  9228,  9121,  76569,  76570,  76571,  76542,  77140,  77143,  77142,  
76544,  102009,  102010,  102011,  102012
34979,  9116,  9128,  9129,  9117,  9123,  9230,  9229,  9122,  76567,  76568,  76569,  76539,  77138,  77141,  77140,  
76541,  102013,  102014,  102015,  102016
34980,  809,  812,  9128,  9116,  810,  829,  9230,  9123,  75972,  76566,  76567,  76536,  76559,  77139,  77138,  
76538,  102017,  102018,  102019,  102020
34981,  9004,  9016,  812,  809,  9005,  9124,  829,  810,  75970,  75971,  75972,  75945,  76557,  76560,  76559,  
75947,  102021,  102022,  102023,  102024
34982,  9003,  9015,  9016,  9004,  9006,  9125,  9124,  9005,  75968,  75969,  75970,  75942,  76555,  76558,  76557,  
75944,  102025,  102026,  102027,  102028
34983,  9002,  9014,  9015,  9003,  9007,  9126,  9125,  9006,  75966,  75967,  75968,  75939,  76553,  76556,  76555,  
75941,  102029,  102030,  102031,  102032
34984,  9001,  9013,  9014,  9002,  9008,  9127,  9126,  9007,  75964,  75965,  75966,  75936,  76551,  76554,  76553,  
75938,  102033,  102034,  102035,  102036
34985,  793,  796,  9013,  9001,  794,  811,  9127,  9008,  75385,  75963,  75964,  75933,  75956,  76552,  76551,  
75935,  102037,  102038,  102039,  102040
34986,  8901,  8913,  796,  793,  8902,  9009,  811,  794,  75383,  75384,  75385,  75358,  75954,  75957,  75956,  
75360,  102041,  102042,  102043,  102044
34987,  8900,  8912,  8913,  8901,  8903,  9010,  9009,  8902,  75381,  75382,  75383,  75355,  75952,  75955,  75954,  
75357,  102045,  102046,  102047,  102048
34988,  8899,  8911,  8912,  8900,  8904,  9011,  9010,  8903,  75379,  75380,  75381,  75352,  75950,  75953,  75952,  
75354,  102049,  102050,  102051,  102052
34989,  8898,  8910,  8911,  8899,  8905,  9012,  9011,  8904,  75377,  75378,  75379,  75349,  75948,  75951,  75950,  
75351,  102053,  102054,  102055,  102056
34990,  775,  778,  8910,  8898,  776,  795,  9012,  8905,  74782,  75376,  75377,  75346,  75369,  75949,  75948,  
75348,  102057,  102058,  102059,  102060
34991,  8786,  8798,  778,  775,  8787,  8906,  795,  776,  74780,  74781,  74782,  74755,  75367,  75370,  75369,  
74757,  102061,  102062,  102063,  102064
34992,  8785,  8797,  8798,  8786,  8788,  8907,  8906,  8787,  74778,  74779,  74780,  74752,  75365,  75368,  75367,  
74754,  102065,  102066,  102067,  102068
34993,  8784,  8796,  8797,  8785,  8789,  8908,  8907,  8788,  74776,  74777,  74778,  74749,  75363,  75366,  75365,  
74751,  102069,  102070,  102071,  102072
34994,  8783,  8795,  8796,  8784,  8790,  8909,  8908,  8789,  74774,  74775,  74776,  74746,  75361,  75364,  75363,  
74748,  102073,  102074,  102075,  102076
34995,  759,  762,  8795,  8783,  760,  777,  8909,  8790,  74195,  74773,  74774,  74743,  74766,  75362,  75361,  
74745,  102077,  102078,  102079,  102080
34996,  8683,  8695,  762,  759,  8684,  8791,  777,  760,  74193,  74194,  74195,  74168,  74764,  74767,  74766,  
74170,  102081,  102082,  102083,  102084
34997,  8682,  8694,  8695,  8683,  8685,  8792,  8791,  8684,  74191,  74192,  74193,  74165,  74762,  74765,  74764,  
74167,  102085,  102086,  102087,  102088
34998,  8681,  8693,  8694,  8682,  8686,  8793,  8792,  8685,  74189,  74190,  74191,  74162,  74760,  74763,  74762,  
74164,  102089,  102090,  102091,  102092
34999,  8680,  8692,  8693,  8681,  8687,  8794,  8793,  8686,  74187,  74188,  74189,  74159,  74758,  74761,  74760,  
74161,  102093,  102094,  102095,  102096
35000,  741,  744,  8692,  8680,  742,  761,  8794,  8687,  73592,  74186,  74187,  74156,  74179,  74759,  74758,  
74158,  102097,  102098,  102099,  102100
35001,  8568,  8580,  744,  741,  8569,  8688,  761,  742,  73590,  73591,  73592,  73565,  74177,  74180,  74179,  
73567,  102101,  102102,  102103,  102104
35002,  8567,  8579,  8580,  8568,  8570,  8689,  8688,  8569,  73588,  73589,  73590,  73562,  74175,  74178,  74177,  
73564,  102105,  102106,  102107,  102108
35003,  8566,  8578,  8579,  8567,  8571,  8690,  8689,  8570,  73586,  73587,  73588,  73559,  74173,  74176,  74175,  
73561,  102109,  102110,  102111,  102112
35004,  8565,  8577,  8578,  8566,  8572,  8691,  8690,  8571,  73584,  73585,  73586,  73556,  74171,  74174,  74173,  
73558,  102113,  102114,  102115,  102116
35005,  725,  728,  8577,  8565,  726,  743,  8691,  8572,  73005,  73583,  73584,  73553,  73576,  74172,  74171,  
73555,  102117,  102118,  102119,  102120
35006,  8465,  8477,  728,  725,  8466,  8573,  743,  726,  73003,  73004,  73005,  72978,  73574,  73577,  73576,  
72980,  102121,  102122,  102123,  102124
35007,  8464,  8476,  8477,  8465,  8467,  8574,  8573,  8466,  73001,  73002,  73003,  72975,  73572,  73575,  73574,  
72977,  102125,  102126,  102127,  102128
35008,  8463,  8475,  8476,  8464,  8468,  8575,  8574,  8467,  72999,  73000,  73001,  72972,  73570,  73573,  73572,  
72974,  102129,  102130,  102131,  102132
35009,  8462,  8474,  8475,  8463,  8469,  8576,  8575,  8468,  72997,  72998,  72999,  72969,  73568,  73571,  73570,  
72971,  102133,  102134,  102135,  102136
35010,  707,  710,  8474,  8462,  708,  727,  8576,  8469,  72402,  72996,  72997,  72966,  72989,  73569,  73568,  
72968,  102137,  102138,  102139,  102140
35011,  8350,  8362,  710,  707,  8351,  8470,  727,  708,  72400,  72401,  72402,  72375,  72987,  72990,  72989,  
72377,  102141,  102142,  102143,  102144
35012,  8349,  8361,  8362,  8350,  8352,  8471,  8470,  8351,  72398,  72399,  72400,  72372,  72985,  72988,  72987,  
72374,  102145,  102146,  102147,  102148
35013,  8348,  8360,  8361,  8349,  8353,  8472,  8471,  8352,  72396,  72397,  72398,  72369,  72983,  72986,  72985,  
72371,  102149,  102150,  102151,  102152
35014,  8347,  8359,  8360,  8348,  8354,  8473,  8472,  8353,  72394,  72395,  72396,  72366,  72981,  72984,  72983,  
72368,  102153,  102154,  102155,  102156
35015,  691,  694,  8359,  8347,  692,  709,  8473,  8354,  71760,  72393,  72394,  72363,  72386,  72982,  72981,  
72365,  102157,  102158,  102159,  102160
35016,  8243,  8256,  694,  691,  8244,  8355,  709,  692,  71758,  71759,  71760,  71730,  72384,  72387,  72386,  
71732,  102161,  102162,  102163,  102164
35017,  8242,  8255,  8256,  8243,  8245,  8356,  8355,  8244,  71756,  71757,  71758,  71727,  72382,  72385,  72384,  
71729,  102165,  102166,  102167,  102168
35018,  8241,  8254,  8255,  8242,  8246,  8357,  8356,  8245,  71754,  71755,  71756,  71724,  72380,  72383,  72382,  
71726,  102169,  102170,  102171,  102172
35019,  8240,  8253,  8254,  8241,  8247,  8358,  8357,  8246,  71752,  71753,  71754,  71721,  72378,  72381,  72380,  
71723,  102173,  102174,  102175,  102176
35020,  673,  676,  8253,  8240,  674,  693,  8358,  8247,  71042,  71751,  71752,  71718,  71743,  72379,  72378,  
71720,  102177,  102178,  102179,  102180
35021,  8111,  8126,  676,  673,  8112,  8248,  693,  674,  71040,  71041,  71042,  71010,  71741,  71744,  71743,  
71012,  102181,  102182,  102183,  102184
35022,  8110,  8125,  8126,  8111,  8113,  8249,  8248,  8112,  71038,  71039,  71040,  71007,  71739,  71742,  71741,  
71009,  102185,  102186,  102187,  102188
35023,  8109,  8124,  8125,  8110,  8114,  8250,  8249,  8113,  71036,  71037,  71038,  71004,  71737,  71740,  71739,  
71006,  102189,  102190,  102191,  102192
35024,  8108,  8123,  8124,  8109,  8115,  8251,  8250,  8114,  71034,  71035,  71036,  71001,  71735,  71738,  71737,  
71003,  102193,  102194,  102195,  102196
35025,  8107,  8122,  8123,  8108,  8116,  8252,  8251,  8115,  71032,  71033,  71034,  70998,  71733,  71736,  71735,  
71000,  102197,  102198,  102199,  102200
35026,  657,  660,  8122,  8107,  658,  675,  8252,  8116,  70337,  71031,  71032,  70995,  71023,  71734,  71733,  
70997,  102201,  102202,  102203,  102204
35027,  7992,  8007,  660,  657,  7993,  8117,  675,  658,  70335,  70336,  70337,  70305,  71021,  71024,  71023,  
70307,  102205,  102206,  102207,  102208
35028,  7991,  8006,  8007,  7992,  7994,  8118,  8117,  7993,  70333,  70334,  70335,  70302,  71019,  71022,  71021,  
70304,  102209,  102210,  102211,  102212
35029,  7990,  8005,  8006,  7991,  7995,  8119,  8118,  7994,  70331,  70332,  70333,  70299,  71017,  71020,  71019,  
70301,  102213,  102214,  102215,  102216
35030,  7989,  8004,  8005,  7990,  7996,  8120,  8119,  7995,  70329,  70330,  70331,  70296,  71015,  71018,  71017,  
70298,  102217,  102218,  102219,  102220
35031,  7988,  8003,  8004,  7989,  7997,  8121,  8120,  7996,  70327,  70328,  70329,  70293,  71013,  71016,  71015,  
70295,  102221,  102222,  102223,  102224
35032,  639,  642,  8003,  7988,  640,  659,  8121,  7997,  69614,  70326,  70327,  70290,  70318,  71014,  71013,  
70292,  102225,  102226,  102227,  102228
35033,  7859,  7874,  642,  639,  7860,  7998,  659,  640,  69612,  69613,  69614,  69582,  70316,  70319,  70318,  
69584,  102229,  102230,  102231,  102232
35034,  7858,  7873,  7874,  7859,  7861,  7999,  7998,  7860,  69610,  69611,  69612,  69579,  70314,  70317,  70316,  
69581,  102233,  102234,  102235,  102236
35035,  7857,  7872,  7873,  7858,  7862,  8000,  7999,  7861,  69608,  69609,  69610,  69576,  70312,  70315,  70314,  
69578,  102237,  102238,  102239,  102240
35036,  7856,  7871,  7872,  7857,  7863,  8001,  8000,  7862,  69606,  69607,  69608,  69573,  70310,  70313,  70312,  
69575,  102241,  102242,  102243,  102244
35037,  7855,  7870,  7871,  7856,  7864,  8002,  8001,  7863,  69604,  69605,  69606,  69570,  70308,  70311,  70310,  
69572,  102245,  102246,  102247,  102248
35038,  623,  626,  7870,  7855,  624,  641,  8002,  7864,  68909,  69603,  69604,  69567,  69595,  70309,  70308,  
69569,  102249,  102250,  102251,  102252
35039,  7740,  7755,  626,  623,  7741,  7865,  641,  624,  68907,  68908,  68909,  68877,  69593,  69596,  69595,  
68879,  102253,  102254,  102255,  102256
35040,  7739,  7754,  7755,  7740,  7742,  7866,  7865,  7741,  68905,  68906,  68907,  68874,  69591,  69594,  69593,  
68876,  102257,  102258,  102259,  102260
35041,  7738,  7753,  7754,  7739,  7743,  7867,  7866,  7742,  68903,  68904,  68905,  68871,  69589,  69592,  69591,  
68873,  102261,  102262,  102263,  102264
35042,  7737,  7752,  7753,  7738,  7744,  7868,  7867,  7743,  68901,  68902,  68903,  68868,  69587,  69590,  69589,  
68870,  102265,  102266,  102267,  102268
35043,  7736,  7751,  7752,  7737,  7745,  7869,  7868,  7744,  68899,  68900,  68901,  68865,  69585,  69588,  69587,  
68867,  102269,  102270,  102271,  102272
35044,  605,  608,  7751,  7736,  606,  625,  7869,  7745,  68186,  68898,  68899,  68862,  68890,  69586,  69585,  
68864,  102273,  102274,  102275,  102276
35045,  7607,  7622,  608,  605,  7608,  7746,  625,  606,  68184,  68185,  68186,  68154,  68888,  68891,  68890,  
68156,  102277,  102278,  102279,  102280
35046,  7606,  7621,  7622,  7607,  7609,  7747,  7746,  7608,  68182,  68183,  68184,  68151,  68886,  68889,  68888,  
68153,  102281,  102282,  102283,  102284
35047,  7605,  7620,  7621,  7606,  7610,  7748,  7747,  7609,  68180,  68181,  68182,  68148,  68884,  68887,  68886,  
68150,  102285,  102286,  102287,  102288
35048,  7604,  7619,  7620,  7605,  7611,  7749,  7748,  7610,  68178,  68179,  68180,  68145,  68882,  68885,  68884,  
68147,  102289,  102290,  102291,  102292
35049,  7603,  7618,  7619,  7604,  7612,  7750,  7749,  7611,  68176,  68177,  68178,  68142,  68880,  68883,  68882,  
68144,  102293,  102294,  102295,  102296
35050,  589,  592,  7618,  7603,  590,  607,  7750,  7612,  67481,  68175,  68176,  68139,  68167,  68881,  68880,  
68141,  102297,  102298,  102299,  102300
35051,  7488,  7503,  592,  589,  7489,  7613,  607,  590,  67479,  67480,  67481,  67449,  68165,  68168,  68167,  
67451,  102301,  102302,  102303,  102304
35052,  7487,  7502,  7503,  7488,  7490,  7614,  7613,  7489,  67477,  67478,  67479,  67446,  68163,  68166,  68165,  
67448,  102305,  102306,  102307,  102308
35053,  7486,  7501,  7502,  7487,  7491,  7615,  7614,  7490,  67475,  67476,  67477,  67443,  68161,  68164,  68163,  
67445,  102309,  102310,  102311,  102312
35054,  7485,  7500,  7501,  7486,  7492,  7616,  7615,  7491,  67473,  67474,  67475,  67440,  68159,  68162,  68161,  
67442,  102313,  102314,  102315,  102316
35055,  7484,  7499,  7500,  7485,  7493,  7617,  7616,  7492,  67471,  67472,  67473,  67437,  68157,  68160,  68159,  
67439,  102317,  102318,  102319,  102320
35056,  571,  574,  7499,  7484,  572,  591,  7617,  7493,  66758,  67470,  67471,  67434,  67462,  68158,  68157,  
67436,  102321,  102322,  102323,  102324
35057,  7355,  7370,  574,  571,  7356,  7494,  591,  572,  66756,  66757,  66758,  66726,  67460,  67463,  67462,  
66728,  102325,  102326,  102327,  102328
35058,  7354,  7369,  7370,  7355,  7357,  7495,  7494,  7356,  66754,  66755,  66756,  66723,  67458,  67461,  67460,  
66725,  102329,  102330,  102331,  102332
35059,  7353,  7368,  7369,  7354,  7358,  7496,  7495,  7357,  66752,  66753,  66754,  66720,  67456,  67459,  67458,  
66722,  102333,  102334,  102335,  102336
35060,  7352,  7367,  7368,  7353,  7359,  7497,  7496,  7358,  66750,  66751,  66752,  66717,  67454,  67457,  67456,  
66719,  102337,  102338,  102339,  102340
35061,  7351,  7366,  7367,  7352,  7360,  7498,  7497,  7359,  66748,  66749,  66750,  66714,  67452,  67455,  67454,  
66716,  102341,  102342,  102343,  102344
35062,  555,  558,  7366,  7351,  556,  573,  7498,  7360,  66053,  66747,  66748,  66711,  66739,  67453,  67452,  
66713,  102345,  102346,  102347,  102348
35063,  7236,  7251,  558,  555,  7237,  7361,  573,  556,  66051,  66052,  66053,  66021,  66737,  66740,  66739,  
66023,  102349,  102350,  102351,  102352
35064,  7235,  7250,  7251,  7236,  7238,  7362,  7361,  7237,  66049,  66050,  66051,  66018,  66735,  66738,  66737,  
66020,  102353,  102354,  102355,  102356
35065,  7234,  7249,  7250,  7235,  7239,  7363,  7362,  7238,  66047,  66048,  66049,  66015,  66733,  66736,  66735,  
66017,  102357,  102358,  102359,  102360
35066,  7233,  7248,  7249,  7234,  7240,  7364,  7363,  7239,  66045,  66046,  66047,  66012,  66731,  66734,  66733,  
66014,  102361,  102362,  102363,  102364
35067,  7232,  7247,  7248,  7233,  7241,  7365,  7364,  7240,  66043,  66044,  66045,  66009,  66729,  66732,  66731,  
66011,  102365,  102366,  102367,  102368
35068,  537,  540,  7247,  7232,  538,  557,  7365,  7241,  65330,  66042,  66043,  66006,  66034,  66730,  66729,  
66008,  102369,  102370,  102371,  102372
35069,  7103,  7118,  540,  537,  7104,  7242,  557,  538,  65328,  65329,  65330,  65298,  66032,  66035,  66034,  
65300,  102373,  102374,  102375,  102376
35070,  7102,  7117,  7118,  7103,  7105,  7243,  7242,  7104,  65326,  65327,  65328,  65295,  66030,  66033,  66032,  
65297,  102377,  102378,  102379,  102380
35071,  7101,  7116,  7117,  7102,  7106,  7244,  7243,  7105,  65324,  65325,  65326,  65292,  66028,  66031,  66030,  
65294,  102381,  102382,  102383,  102384
35072,  7100,  7115,  7116,  7101,  7107,  7245,  7244,  7106,  65322,  65323,  65324,  65289,  66026,  66029,  66028,  
65291,  102385,  102386,  102387,  102388
35073,  7099,  7114,  7115,  7100,  7108,  7246,  7245,  7107,  65320,  65321,  65322,  65286,  66024,  66027,  66026,  
65288,  102389,  102390,  102391,  102392
35074,  521,  524,  7114,  7099,  522,  539,  7246,  7108,  64620,  65319,  65320,  65283,  65311,  66025,  66024,  
65285,  102393,  102394,  102395,  102396
35075,  6984,  6999,  524,  521,  6985,  7109,  539,  522,  64618,  64619,  64620,  64588,  65309,  65312,  65311,  
64590,  102397,  102398,  102399,  102400
35076,  6983,  6998,  6999,  6984,  6986,  7110,  7109,  6985,  64616,  64617,  64618,  64585,  65307,  65310,  65309,  
64587,  102401,  102402,  102403,  102404
35077,  6982,  6997,  6998,  6983,  6987,  7111,  7110,  6986,  64614,  64615,  64616,  64582,  65305,  65308,  65307,  
64584,  102405,  102406,  102407,  102408
35078,  6981,  6996,  6997,  6982,  6988,  7112,  7111,  6987,  64612,  64613,  64614,  64579,  65303,  65306,  65305,  
64581,  102409,  102410,  102411,  102412
35079,  6980,  6995,  6996,  6981,  6989,  7113,  7112,  6988,  64610,  64611,  64612,  64576,  65301,  65304,  65303,  
64578,  102413,  102414,  102415,  102416
35080,  503,  506,  6995,  6980,  504,  523,  7113,  6989,  63846,  64609,  64610,  64573,  64601,  65302,  65301,  
64575,  102417,  102418,  102419,  102420
35081,  6846,  6862,  506,  503,  6847,  6990,  523,  504,  63844,  63845,  63846,  63811,  64599,  64602,  64601,  
63813,  102421,  102422,  102423,  102424
35082,  6845,  6861,  6862,  6846,  6848,  6991,  6990,  6847,  63842,  63843,  63844,  63808,  64597,  64600,  64599,  
63810,  102425,  102426,  102427,  102428
35083,  6844,  6860,  6861,  6845,  6849,  6992,  6991,  6848,  63840,  63841,  63842,  63805,  64595,  64598,  64597,  
63807,  102429,  102430,  102431,  102432
35084,  6843,  6859,  6860,  6844,  6850,  6993,  6992,  6849,  63838,  63839,  63840,  63802,  64593,  64596,  64595,  
63804,  102433,  102434,  102435,  102436
35085,  6842,  6858,  6859,  6843,  6851,  6994,  6993,  6850,  63836,  63837,  63838,  63799,  64591,  64594,  64593,  
63801,  102437,  102438,  102439,  102440
35086,  487,  490,  6858,  6842,  488,  505,  6994,  6851,  63028,  63835,  63836,  63796,  63826,  64592,  64591,  
63798,  102441,  102442,  102443,  102444
35087,  6712,  6730,  490,  487,  6713,  6852,  505,  488,  63026,  63027,  63028,  62991,  63824,  63827,  63826,  
62993,  102445,  102446,  102447,  102448
35088,  6711,  6729,  6730,  6712,  6714,  6853,  6852,  6713,  63024,  63025,  63026,  62988,  63822,  63825,  63824,  
62990,  102449,  102450,  102451,  102452
35089,  6710,  6728,  6729,  6711,  6715,  6854,  6853,  6714,  63022,  63023,  63024,  62985,  63820,  63823,  63822,  
62987,  102453,  102454,  102455,  102456
35090,  6709,  6727,  6728,  6710,  6716,  6855,  6854,  6715,  63020,  63021,  63022,  62982,  63818,  63821,  63820,  
62984,  102457,  102458,  102459,  102460
35091,  6708,  6726,  6727,  6709,  6717,  6856,  6855,  6716,  63018,  63019,  63020,  62979,  63816,  63819,  63818,  
62981,  102461,  102462,  102463,  102464
35092,  6707,  6725,  6726,  6708,  6718,  6857,  6856,  6717,  63016,  63017,  63018,  62976,  63814,  63817,  63816,  
62978,  102465,  102466,  102467,  102468
35093,  469,  472,  6725,  6707,  470,  489,  6857,  6718,  62185,  63015,  63016,  62973,  63006,  63815,  63814,  
62975,  102469,  102470,  102471,  102472
35094,  6561,  6579,  472,  469,  6562,  6719,  489,  470,  62183,  62184,  62185,  62148,  63004,  63007,  63006,  
62150,  102473,  102474,  102475,  102476
35095,  6560,  6578,  6579,  6561,  6563,  6720,  6719,  6562,  62181,  62182,  62183,  62145,  63002,  63005,  63004,  
62147,  102477,  102478,  102479,  102480
35096,  6559,  6577,  6578,  6560,  6564,  6721,  6720,  6563,  62179,  62180,  62181,  62142,  63000,  63003,  63002,  
62144,  102481,  102482,  102483,  102484
35097,  6558,  6576,  6577,  6559,  6565,  6722,  6721,  6564,  62177,  62178,  62179,  62139,  62998,  63001,  63000,  
62141,  102485,  102486,  102487,  102488
35098,  6557,  6575,  6576,  6558,  6566,  6723,  6722,  6565,  62175,  62176,  62177,  62136,  62996,  62999,  62998,  
62138,  102489,  102490,  102491,  102492
35099,  6556,  6574,  6575,  6557,  6567,  6724,  6723,  6566,  62173,  62174,  62175,  62133,  62994,  62997,  62996,  
62135,  102493,  102494,  102495,  102496
35100,  453,  456,  6574,  6556,  454,  471,  6724,  6567,  61362,  62172,  62173,  62130,  62163,  62995,  62994,  
62132,  102497,  102498,  102499,  102500
35101,  6426,  6444,  456,  453,  6427,  6568,  471,  454,  61360,  61361,  61362,  61325,  62161,  62164,  62163,  
61327,  102501,  102502,  102503,  102504
35102,  6425,  6443,  6444,  6426,  6428,  6569,  6568,  6427,  61358,  61359,  61360,  61322,  62159,  62162,  62161,  
61324,  102505,  102506,  102507,  102508
35103,  6424,  6442,  6443,  6425,  6429,  6570,  6569,  6428,  61356,  61357,  61358,  61319,  62157,  62160,  62159,  
61321,  102509,  102510,  102511,  102512
35104,  6423,  6441,  6442,  6424,  6430,  6571,  6570,  6429,  61354,  61355,  61356,  61316,  62155,  62158,  62157,  
61318,  102513,  102514,  102515,  102516
35105,  6422,  6440,  6441,  6423,  6431,  6572,  6571,  6430,  61352,  61353,  61354,  61313,  62153,  62156,  62155,  
61315,  102517,  102518,  102519,  102520
35106,  6421,  6439,  6440,  6422,  6432,  6573,  6572,  6431,  61350,  61351,  61352,  61310,  62151,  62154,  62153,  
61312,  102521,  102522,  102523,  102524
35107,  435,  438,  6439,  6421,  436,  455,  6573,  6432,  60519,  61349,  61350,  61307,  61340,  62152,  62151,  
61309,  102525,  102526,  102527,  102528
35108,  6275,  6293,  438,  435,  6276,  6433,  455,  436,  60517,  60518,  60519,  60482,  61338,  61341,  61340,  
60484,  102529,  102530,  102531,  102532
35109,  6274,  6292,  6293,  6275,  6277,  6434,  6433,  6276,  60515,  60516,  60517,  60479,  61336,  61339,  61338,  
60481,  102533,  102534,  102535,  102536
35110,  6273,  6291,  6292,  6274,  6278,  6435,  6434,  6277,  60513,  60514,  60515,  60476,  61334,  61337,  61336,  
60478,  102537,  102538,  102539,  102540
35111,  6272,  6290,  6291,  6273,  6279,  6436,  6435,  6278,  60511,  60512,  60513,  60473,  61332,  61335,  61334,  
60475,  102541,  102542,  102543,  102544
35112,  6271,  6289,  6290,  6272,  6280,  6437,  6436,  6279,  60509,  60510,  60511,  60470,  61330,  61333,  61332,  
60472,  102545,  102546,  102547,  102548
35113,  6270,  6288,  6289,  6271,  6281,  6438,  6437,  6280,  60507,  60508,  60509,  60467,  61328,  61331,  61330,  
60469,  102549,  102550,  102551,  102552
35114,  419,  422,  6288,  6270,  420,  437,  6438,  6281,  59696,  60506,  60507,  60464,  60497,  61329,  61328,  
60466,  102553,  102554,  102555,  102556
35115,  6140,  6158,  422,  419,  6141,  6282,  437,  420,  59694,  59695,  59696,  59659,  60495,  60498,  60497,  
59661,  102557,  102558,  102559,  102560
35116,  6139,  6157,  6158,  6140,  6142,  6283,  6282,  6141,  59692,  59693,  59694,  59656,  60493,  60496,  60495,  
59658,  102561,  102562,  102563,  102564
35117,  6138,  6156,  6157,  6139,  6143,  6284,  6283,  6142,  59690,  59691,  59692,  59653,  60491,  60494,  60493,  
59655,  102565,  102566,  102567,  102568
35118,  6137,  6155,  6156,  6138,  6144,  6285,  6284,  6143,  59688,  59689,  59690,  59650,  60489,  60492,  60491,  
59652,  102569,  102570,  102571,  102572
35119,  6136,  6154,  6155,  6137,  6145,  6286,  6285,  6144,  59686,  59687,  59688,  59647,  60487,  60490,  60489,  
59649,  102573,  102574,  102575,  102576
35120,  6135,  6153,  6154,  6136,  6146,  6287,  6286,  6145,  59684,  59685,  59686,  59644,  60485,  60488,  60487,  
59646,  102577,  102578,  102579,  102580
35121,  401,  404,  6153,  6135,  402,  421,  6287,  6146,  58853,  59683,  59684,  59641,  59674,  60486,  60485,  
59643,  102581,  102582,  102583,  102584
35122,  5989,  6007,  404,  401,  5990,  6147,  421,  402,  58851,  58852,  58853,  58816,  59672,  59675,  59674,  
58818,  102585,  102586,  102587,  102588
35123,  5988,  6006,  6007,  5989,  5991,  6148,  6147,  5990,  58849,  58850,  58851,  58813,  59670,  59673,  59672,  
58815,  102589,  102590,  102591,  102592
35124,  5987,  6005,  6006,  5988,  5992,  6149,  6148,  5991,  58847,  58848,  58849,  58810,  59668,  59671,  59670,  
58812,  102593,  102594,  102595,  102596
35125,  5986,  6004,  6005,  5987,  5993,  6150,  6149,  5992,  58845,  58846,  58847,  58807,  59666,  59669,  59668,  
58809,  102597,  102598,  102599,  102600
35126,  5985,  6003,  6004,  5986,  5994,  6151,  6150,  5993,  58843,  58844,  58845,  58804,  59664,  59667,  59666,  
58806,  102601,  102602,  102603,  102604
35127,  5984,  6002,  6003,  5985,  5995,  6152,  6151,  5994,  58841,  58842,  58843,  58801,  59662,  59665,  59664,  
58803,  102605,  102606,  102607,  102608
35128,  385,  388,  6002,  5984,  386,  403,  6152,  5995,  58025,  58840,  58841,  58798,  58831,  59663,  59662,  
58800,  102609,  102610,  102611,  102612
35129,  5854,  5872,  388,  385,  5855,  5996,  403,  386,  58023,  58024,  58025,  57988,  58829,  58832,  58831,  
57990,  102613,  102614,  102615,  102616
35130,  5853,  5871,  5872,  5854,  5856,  5997,  5996,  5855,  58021,  58022,  58023,  57985,  58827,  58830,  58829,  
57987,  102617,  102618,  102619,  102620
35131,  5852,  5870,  5871,  5853,  5857,  5998,  5997,  5856,  58019,  58020,  58021,  57982,  58825,  58828,  58827,  
57984,  102621,  102622,  102623,  102624
35132,  5851,  5869,  5870,  5852,  5858,  5999,  5998,  5857,  58017,  58018,  58019,  57979,  58823,  58826,  58825,  
57981,  102625,  102626,  102627,  102628
35133,  5850,  5868,  5869,  5851,  5859,  6000,  5999,  5858,  58015,  58016,  58017,  57976,  58821,  58824,  58823,  
57978,  102629,  102630,  102631,  102632
35134,  5849,  5867,  5868,  5850,  5860,  6001,  6000,  5859,  58013,  58014,  58015,  57973,  58819,  58822,  58821,  
57975,  102633,  102634,  102635,  102636
35135,  367,  370,  5867,  5849,  368,  387,  6001,  5860,  57131,  58012,  58013,  57970,  58003,  58820,  58819,  
57972,  102637,  102638,  102639,  102640
35136,  5698,  5717,  370,  367,  5699,  5861,  387,  368,  57129,  57130,  57131,  57091,  58001,  58004,  58003,  
57093,  102641,  102642,  102643,  102644
35137,  5697,  5716,  5717,  5698,  5700,  5862,  5861,  5699,  57127,  57128,  57129,  57088,  57999,  58002,  58001,  
57090,  102645,  102646,  102647,  102648
35138,  5696,  5715,  5716,  5697,  5701,  5863,  5862,  5700,  57125,  57126,  57127,  57085,  57997,  58000,  57999,  
57087,  102649,  102650,  102651,  102652
35139,  5695,  5714,  5715,  5696,  5702,  5864,  5863,  5701,  57123,  57124,  57125,  57082,  57995,  57998,  57997,  
57084,  102653,  102654,  102655,  102656
35140,  5694,  5713,  5714,  5695,  5703,  5865,  5864,  5702,  57121,  57122,  57123,  57079,  57993,  57996,  57995,  
57081,  102657,  102658,  102659,  102660
35141,  5693,  5712,  5713,  5694,  5704,  5866,  5865,  5703,  57119,  57120,  57121,  57076,  57991,  57994,  57993,  
57078,  102661,  102662,  102663,  102664
35142,  351,  354,  5712,  5693,  352,  369,  5866,  5704,  56195,  57118,  57119,  57073,  57108,  57992,  57991,  
57075,  102665,  102666,  102667,  102668
35143,  5548,  5569,  354,  351,  5549,  5705,  369,  352,  56193,  56194,  56195,  56153,  57106,  57109,  57108,  
56155,  102669,  102670,  102671,  102672
35144,  5547,  5568,  5569,  5548,  5550,  5706,  5705,  5549,  56191,  56192,  56193,  56150,  57104,  57107,  57106,  
56152,  102673,  102674,  102675,  102676
35145,  5546,  5567,  5568,  5547,  5551,  5707,  5706,  5550,  56189,  56190,  56191,  56147,  57102,  57105,  57104,  
56149,  102677,  102678,  102679,  102680
35146,  5545,  5566,  5567,  5546,  5552,  5708,  5707,  5551,  56187,  56188,  56189,  56144,  57100,  57103,  57102,  
56146,  102681,  102682,  102683,  102684
35147,  5544,  5565,  5566,  5545,  5553,  5709,  5708,  5552,  56185,  56186,  56187,  56141,  57098,  57101,  57100,  
56143,  102685,  102686,  102687,  102688
35148,  5543,  5564,  5565,  5544,  5554,  5710,  5709,  5553,  56183,  56184,  56185,  56138,  57096,  57099,  57098,  
56140,  102689,  102690,  102691,  102692
35149,  5542,  5563,  5564,  5543,  5555,  5711,  5710,  5554,  56181,  56182,  56183,  56135,  57094,  57097,  57096,  
56137,  102693,  102694,  102695,  102696
35150,  333,  336,  5563,  5542,  334,  353,  5711,  5555,  55232,  56180,  56181,  56132,  56170,  57095,  57094,  
56134,  102697,  102698,  102699,  102700
35151,  5379,  5400,  336,  333,  5380,  5556,  353,  334,  55230,  55231,  55232,  55190,  56168,  56171,  56170,  
55192,  102701,  102702,  102703,  102704
35152,  5378,  5399,  5400,  5379,  5381,  5557,  5556,  5380,  55228,  55229,  55230,  55187,  56166,  56169,  56168,  
55189,  102705,  102706,  102707,  102708
35153,  5377,  5398,  5399,  5378,  5382,  5558,  5557,  5381,  55226,  55227,  55228,  55184,  56164,  56167,  56166,  
55186,  102709,  102710,  102711,  102712
35154,  5376,  5397,  5398,  5377,  5383,  5559,  5558,  5382,  55224,  55225,  55226,  55181,  56162,  56165,  56164,  
55183,  102713,  102714,  102715,  102716
35155,  5375,  5396,  5397,  5376,  5384,  5560,  5559,  5383,  55222,  55223,  55224,  55178,  56160,  56163,  56162,  
55180,  102717,  102718,  102719,  102720
35156,  5374,  5395,  5396,  5375,  5385,  5561,  5560,  5384,  55220,  55221,  55222,  55175,  56158,  56161,  56160,  
55177,  102721,  102722,  102723,  102724
35157,  5373,  5394,  5395,  5374,  5386,  5562,  5561,  5385,  55218,  55219,  55220,  55172,  56156,  56159,  56158,  
55174,  102725,  102726,  102727,  102728
35158,  317,  320,  5394,  5373,  318,  335,  5562,  5386,  54291,  55217,  55218,  55169,  55207,  56157,  56156,  
55171,  102729,  102730,  102731,  102732
35159,  5228,  5249,  320,  317,  5229,  5387,  335,  318,  54289,  54290,  54291,  54249,  55205,  55208,  55207,  
54251,  102733,  102734,  102735,  102736
35160,  5227,  5248,  5249,  5228,  5230,  5388,  5387,  5229,  54287,  54288,  54289,  54246,  55203,  55206,  55205,  
54248,  102737,  102738,  102739,  102740
35161,  5226,  5247,  5248,  5227,  5231,  5389,  5388,  5230,  54285,  54286,  54287,  54243,  55201,  55204,  55203,  
54245,  102741,  102742,  102743,  102744
35162,  5225,  5246,  5247,  5226,  5232,  5390,  5389,  5231,  54283,  54284,  54285,  54240,  55199,  55202,  55201,  
54242,  102745,  102746,  102747,  102748
35163,  5224,  5245,  5246,  5225,  5233,  5391,  5390,  5232,  54281,  54282,  54283,  54237,  55197,  55200,  55199,  
54239,  102749,  102750,  102751,  102752
35164,  5223,  5244,  5245,  5224,  5234,  5392,  5391,  5233,  54279,  54280,  54281,  54234,  55195,  55198,  55197,  
54236,  102753,  102754,  102755,  102756
35165,  5222,  5243,  5244,  5223,  5235,  5393,  5392,  5234,  54277,  54278,  54279,  54231,  55193,  55196,  55195,  
54233,  102757,  102758,  102759,  102760
35166,  299,  302,  5243,  5222,  300,  319,  5393,  5235,  53328,  54276,  54277,  54228,  54266,  55194,  55193,  
54230,  102761,  102762,  102763,  102764
35167,  5059,  5080,  302,  299,  5060,  5236,  319,  300,  53326,  53327,  53328,  53286,  54264,  54267,  54266,  
53288,  102765,  102766,  102767,  102768
35168,  5058,  5079,  5080,  5059,  5061,  5237,  5236,  5060,  53324,  53325,  53326,  53283,  54262,  54265,  54264,  
53285,  102769,  102770,  102771,  102772
35169,  5057,  5078,  5079,  5058,  5062,  5238,  5237,  5061,  53322,  53323,  53324,  53280,  54260,  54263,  54262,  
53282,  102773,  102774,  102775,  102776
35170,  5056,  5077,  5078,  5057,  5063,  5239,  5238,  5062,  53320,  53321,  53322,  53277,  54258,  54261,  54260,  
53279,  102777,  102778,  102779,  102780
35171,  5055,  5076,  5077,  5056,  5064,  5240,  5239,  5063,  53318,  53319,  53320,  53274,  54256,  54259,  54258,  
53276,  102781,  102782,  102783,  102784
35172,  5054,  5075,  5076,  5055,  5065,  5241,  5240,  5064,  53316,  53317,  53318,  53271,  54254,  54257,  54256,  
53273,  102785,  102786,  102787,  102788
35173,  5053,  5074,  5075,  5054,  5066,  5242,  5241,  5065,  53314,  53315,  53316,  53268,  54252,  54255,  54254,  
53270,  102789,  102790,  102791,  102792
35174,  283,  286,  5074,  5053,  284,  301,  5242,  5066,  52382,  53313,  53314,  53265,  53303,  54253,  54252,  
53267,  102793,  102794,  102795,  102796
35175,  4908,  4929,  286,  283,  4909,  5067,  301,  284,  52380,  52381,  52382,  52340,  53301,  53304,  53303,  
52342,  102797,  102798,  102799,  102800
35176,  4907,  4928,  4929,  4908,  4910,  5068,  5067,  4909,  52378,  52379,  52380,  52337,  53299,  53302,  53301,  
52339,  102801,  102802,  102803,  102804
35177,  4906,  4927,  4928,  4907,  4911,  5069,  5068,  4910,  52376,  52377,  52378,  52334,  53297,  53300,  53299,  
52336,  102805,  102806,  102807,  102808
35178,  4905,  4926,  4927,  4906,  4912,  5070,  5069,  4911,  52374,  52375,  52376,  52331,  53295,  53298,  53297,  
52333,  102809,  102810,  102811,  102812
35179,  4904,  4925,  4926,  4905,  4913,  5071,  5070,  4912,  52372,  52373,  52374,  52328,  53293,  53296,  53295,  
52330,  102813,  102814,  102815,  102816
35180,  4903,  4924,  4925,  4904,  4914,  5072,  5071,  4913,  52370,  52371,  52372,  52325,  53291,  53294,  53293,  
52327,  102817,  102818,  102819,  102820
35181,  4902,  4923,  4924,  4903,  4915,  5073,  5072,  4914,  52368,  52369,  52370,  52322,  53289,  53292,  53291,  
52324,  102821,  102822,  102823,  102824
35182,  265,  268,  4923,  4902,  266,  285,  5073,  4915,  51368,  52367,  52368,  52319,  52357,  53290,  53289,  
52321,  102825,  102826,  102827,  102828
35183,  4734,  4756,  268,  265,  4735,  4916,  285,  266,  51366,  51367,  51368,  51323,  52355,  52358,  52357,  
51325,  102829,  102830,  102831,  102832
35184,  4733,  4755,  4756,  4734,  4736,  4917,  4916,  4735,  51364,  51365,  51366,  51320,  52353,  52356,  52355,  
51322,  102833,  102834,  102835,  102836
35185,  4732,  4754,  4755,  4733,  4737,  4918,  4917,  4736,  51362,  51363,  51364,  51317,  52351,  52354,  52353,  
51319,  102837,  102838,  102839,  102840
35186,  4731,  4753,  4754,  4732,  4738,  4919,  4918,  4737,  51360,  51361,  51362,  51314,  52349,  52352,  52351,  
51316,  102841,  102842,  102843,  102844
35187,  4730,  4752,  4753,  4731,  4739,  4920,  4919,  4738,  51358,  51359,  51360,  51311,  52347,  52350,  52349,  
51313,  102845,  102846,  102847,  102848
35188,  4729,  4751,  4752,  4730,  4740,  4921,  4920,  4739,  51356,  51357,  51358,  51308,  52345,  52348,  52347,  
51310,  102849,  102850,  102851,  102852
35189,  4728,  4750,  4751,  4729,  4741,  4922,  4921,  4740,  51354,  51355,  51356,  51305,  52343,  52346,  52345,  
51307,  102853,  102854,  102855,  102856
35190,  249,  252,  4750,  4728,  250,  267,  4922,  4741,  50314,  51353,  51354,  51302,  51342,  52344,  52343,  
51304,  102857,  102858,  102859,  102860
35191,  4568,  4592,  252,  249,  4569,  4742,  267,  250,  50312,  50313,  50314,  50267,  51340,  51343,  51342,  
50269,  102861,  102862,  102863,  102864
35192,  4567,  4591,  4592,  4568,  4570,  4743,  4742,  4569,  50310,  50311,  50312,  50264,  51338,  51341,  51340,  
50266,  102865,  102866,  102867,  102868
35193,  4566,  4590,  4591,  4567,  4571,  4744,  4743,  4570,  50308,  50309,  50310,  50261,  51336,  51339,  51338,  
50263,  102869,  102870,  102871,  102872
35194,  4565,  4589,  4590,  4566,  4572,  4745,  4744,  4571,  50306,  50307,  50308,  50258,  51334,  51337,  51336,  
50260,  102873,  102874,  102875,  102876
35195,  4564,  4588,  4589,  4565,  4573,  4746,  4745,  4572,  50304,  50305,  50306,  50255,  51332,  51335,  51334,  
50257,  102877,  102878,  102879,  102880
35196,  4563,  4587,  4588,  4564,  4574,  4747,  4746,  4573,  50302,  50303,  50304,  50252,  51330,  51333,  51332,  
50254,  102881,  102882,  102883,  102884
35197,  4562,  4586,  4587,  4563,  4575,  4748,  4747,  4574,  50300,  50301,  50302,  50249,  51328,  51331,  51330,  
50251,  102885,  102886,  102887,  102888
35198,  4561,  4585,  4586,  4562,  4576,  4749,  4748,  4575,  50298,  50299,  50300,  50246,  51326,  51329,  51328,  
50248,  102889,  102890,  102891,  102892
35199,  231,  234,  4585,  4561,  232,  251,  4749,  4576,  49231,  50297,  50298,  50243,  50286,  51327,  51326,  
50245,  102893,  102894,  102895,  102896
35200,  4381,  4405,  234,  231,  4382,  4577,  251,  232,  49229,  49230,  49231,  49184,  50284,  50287,  50286,  
49186,  102897,  102898,  102899,  102900
35201,  4380,  4404,  4405,  4381,  4383,  4578,  4577,  4382,  49227,  49228,  49229,  49181,  50282,  50285,  50284,  
49183,  102901,  102902,  102903,  102904
35202,  4379,  4403,  4404,  4380,  4384,  4579,  4578,  4383,  49225,  49226,  49227,  49178,  50280,  50283,  50282,  
49180,  102905,  102906,  102907,  102908
35203,  4378,  4402,  4403,  4379,  4385,  4580,  4579,  4384,  49223,  49224,  49225,  49175,  50278,  50281,  50280,  
49177,  102909,  102910,  102911,  102912
35204,  4377,  4401,  4402,  4378,  4386,  4581,  4580,  4385,  49221,  49222,  49223,  49172,  50276,  50279,  50278,  
49174,  102913,  102914,  102915,  102916
35205,  4376,  4400,  4401,  4377,  4387,  4582,  4581,  4386,  49219,  49220,  49221,  49169,  50274,  50277,  50276,  
49171,  102917,  102918,  102919,  102920
35206,  4375,  4399,  4400,  4376,  4388,  4583,  4582,  4387,  49217,  49218,  49219,  49166,  50272,  50275,  50274,  
49168,  102921,  102922,  102923,  102924
35207,  4374,  4398,  4399,  4375,  4389,  4584,  4583,  4388,  49215,  49216,  49217,  49163,  50270,  50273,  50272,  
49165,  102925,  102926,  102927,  102928
35208,  215,  218,  4398,  4374,  216,  233,  4584,  4389,  48172,  49214,  49215,  49160,  49203,  50271,  50270,  
49162,  102929,  102930,  102931,  102932
35209,  4214,  4238,  218,  215,  4215,  4390,  233,  216,  48170,  48171,  48172,  48125,  49201,  49204,  49203,  
48127,  102933,  102934,  102935,  102936
35210,  4213,  4237,  4238,  4214,  4216,  4391,  4390,  4215,  48168,  48169,  48170,  48122,  49199,  49202,  49201,  
48124,  102937,  102938,  102939,  102940
35211,  4212,  4236,  4237,  4213,  4217,  4392,  4391,  4216,  48166,  48167,  48168,  48119,  49197,  49200,  49199,  
48121,  102941,  102942,  102943,  102944
35212,  4211,  4235,  4236,  4212,  4218,  4393,  4392,  4217,  48164,  48165,  48166,  48116,  49195,  49198,  49197,  
48118,  102945,  102946,  102947,  102948
35213,  4210,  4234,  4235,  4211,  4219,  4394,  4393,  4218,  48162,  48163,  48164,  48113,  49193,  49196,  49195,  
48115,  102949,  102950,  102951,  102952
35214,  4209,  4233,  4234,  4210,  4220,  4395,  4394,  4219,  48160,  48161,  48162,  48110,  49191,  49194,  49193,  
48112,  102953,  102954,  102955,  102956
35215,  4208,  4232,  4233,  4209,  4221,  4396,  4395,  4220,  48158,  48159,  48160,  48107,  49189,  49192,  49191,  
48109,  102957,  102958,  102959,  102960
35216,  4207,  4231,  4232,  4208,  4222,  4397,  4396,  4221,  48156,  48157,  48158,  48104,  49187,  49190,  49189,  
48106,  102961,  102962,  102963,  102964
35217,  197,  200,  4231,  4207,  198,  217,  4397,  4222,  47089,  48155,  48156,  48101,  48144,  49188,  49187,  
48103,  102965,  102966,  102967,  102968
35218,  4027,  4051,  200,  197,  4028,  4223,  217,  198,  47087,  47088,  47089,  47042,  48142,  48145,  48144,  
47044,  102969,  102970,  102971,  102972
35219,  4026,  4050,  4051,  4027,  4029,  4224,  4223,  4028,  47085,  47086,  47087,  47039,  48140,  48143,  48142,  
47041,  102973,  102974,  102975,  102976
35220,  4025,  4049,  4050,  4026,  4030,  4225,  4224,  4029,  47083,  47084,  47085,  47036,  48138,  48141,  48140,  
47038,  102977,  102978,  102979,  102980
35221,  4024,  4048,  4049,  4025,  4031,  4226,  4225,  4030,  47081,  47082,  47083,  47033,  48136,  48139,  48138,  
47035,  102981,  102982,  102983,  102984
35222,  4023,  4047,  4048,  4024,  4032,  4227,  4226,  4031,  47079,  47080,  47081,  47030,  48134,  48137,  48136,  
47032,  102985,  102986,  102987,  102988
35223,  4022,  4046,  4047,  4023,  4033,  4228,  4227,  4032,  47077,  47078,  47079,  47027,  48132,  48135,  48134,  
47029,  102989,  102990,  102991,  102992
35224,  4021,  4045,  4046,  4022,  4034,  4229,  4228,  4033,  47075,  47076,  47077,  47024,  48130,  48133,  48132,  
47026,  102993,  102994,  102995,  102996
35225,  4020,  4044,  4045,  4021,  4035,  4230,  4229,  4034,  47073,  47074,  47075,  47021,  48128,  48131,  48130,  
47023,  102997,  102998,  102999,  103000
35226,  181,  184,  4044,  4020,  182,  199,  4230,  4035,  45975,  47072,  47073,  47018,  47061,  48129,  48128,  
47020,  103001,  103002,  103003,  103004
35227,  3856,  3881,  184,  181,  3857,  4036,  199,  182,  45973,  45974,  45975,  45925,  47059,  47062,  47061,  
45927,  103005,  103006,  103007,  103008
35228,  3855,  3880,  3881,  3856,  3858,  4037,  4036,  3857,  45971,  45972,  45973,  45922,  47057,  47060,  47059,  
45924,  103009,  103010,  103011,  103012
35229,  3854,  3879,  3880,  3855,  3859,  4038,  4037,  3858,  45969,  45970,  45971,  45919,  47055,  47058,  47057,  
45921,  103013,  103014,  103015,  103016
35230,  3853,  3878,  3879,  3854,  3860,  4039,  4038,  3859,  45967,  45968,  45969,  45916,  47053,  47056,  47055,  
45918,  103017,  103018,  103019,  103020
35231,  3852,  3877,  3878,  3853,  3861,  4040,  4039,  3860,  45965,  45966,  45967,  45913,  47051,  47054,  47053,  
45915,  103021,  103022,  103023,  103024
35232,  3851,  3876,  3877,  3852,  3862,  4041,  4040,  3861,  45963,  45964,  45965,  45910,  47049,  47052,  47051,  
45912,  103025,  103026,  103027,  103028
35233,  3850,  3875,  3876,  3851,  3863,  4042,  4041,  3862,  45961,  45962,  45963,  45907,  47047,  47050,  47049,  
45909,  103029,  103030,  103031,  103032
35234,  3849,  3874,  3875,  3850,  3864,  4043,  4042,  3863,  45959,  45960,  45961,  45904,  47045,  47048,  47047,  
45906,  103033,  103034,  103035,  103036
35235,  163,  166,  3874,  3849,  164,  183,  4043,  3864,  44777,  45958,  45959,  45901,  45946,  47046,  47045,  
45903,  103037,  103038,  103039,  103040
35236,  3652,  3679,  166,  163,  3653,  3865,  183,  164,  44775,  44776,  44777,  44725,  45944,  45947,  45946,  
44727,  103041,  103042,  103043,  103044
35237,  3651,  3678,  3679,  3652,  3654,  3866,  3865,  3653,  44773,  44774,  44775,  44722,  45942,  45945,  45944,  
44724,  103045,  103046,  103047,  103048
35238,  3650,  3677,  3678,  3651,  3655,  3867,  3866,  3654,  44771,  44772,  44773,  44719,  45940,  45943,  45942,  
44721,  103049,  103050,  103051,  103052
35239,  3649,  3676,  3677,  3650,  3656,  3868,  3867,  3655,  44769,  44770,  44771,  44716,  45938,  45941,  45940,  
44718,  103053,  103054,  103055,  103056
35240,  3648,  3675,  3676,  3649,  3657,  3869,  3868,  3656,  44767,  44768,  44769,  44713,  45936,  45939,  45938,  
44715,  103057,  103058,  103059,  103060
35241,  3647,  3674,  3675,  3648,  3658,  3870,  3869,  3657,  44765,  44766,  44767,  44710,  45934,  45937,  45936,  
44712,  103061,  103062,  103063,  103064
35242,  3646,  3673,  3674,  3647,  3659,  3871,  3870,  3658,  44763,  44764,  44765,  44707,  45932,  45935,  45934,  
44709,  103065,  103066,  103067,  103068
35243,  3645,  3672,  3673,  3646,  3660,  3872,  3871,  3659,  44761,  44762,  44763,  44704,  45930,  45933,  45932,  
44706,  103069,  103070,  103071,  103072
35244,  3644,  3671,  3672,  3645,  3661,  3873,  3872,  3660,  44759,  44760,  44761,  44701,  45928,  45931,  45930,  
44703,  103073,  103074,  103075,  103076
35245,  147,  150,  3671,  3644,  148,  165,  3873,  3661,  43600,  44758,  44759,  44698,  44746,  45929,  45928,  
44700,  103077,  103078,  103079,  103080
35246,  3469,  3496,  150,  147,  3470,  3662,  165,  148,  43598,  43599,  43600,  43548,  44744,  44747,  44746,  
43550,  103081,  103082,  103083,  103084
35247,  3468,  3495,  3496,  3469,  3471,  3663,  3662,  3470,  43596,  43597,  43598,  43545,  44742,  44745,  44744,  
43547,  103085,  103086,  103087,  103088
35248,  3467,  3494,  3495,  3468,  3472,  3664,  3663,  3471,  43594,  43595,  43596,  43542,  44740,  44743,  44742,  
43544,  103089,  103090,  103091,  103092
35249,  3466,  3493,  3494,  3467,  3473,  3665,  3664,  3472,  43592,  43593,  43594,  43539,  44738,  44741,  44740,  
43541,  103093,  103094,  103095,  103096
35250,  3465,  3492,  3493,  3466,  3474,  3666,  3665,  3473,  43590,  43591,  43592,  43536,  44736,  44739,  44738,  
43538,  103097,  103098,  103099,  103100
35251,  3464,  3491,  3492,  3465,  3475,  3667,  3666,  3474,  43588,  43589,  43590,  43533,  44734,  44737,  44736,  
43535,  103101,  103102,  103103,  103104
35252,  3463,  3490,  3491,  3464,  3476,  3668,  3667,  3475,  43586,  43587,  43588,  43530,  44732,  44735,  44734,  
43532,  103105,  103106,  103107,  103108
35253,  3462,  3489,  3490,  3463,  3477,  3669,  3668,  3476,  43584,  43585,  43586,  43527,  44730,  44733,  44732,  
43529,  103109,  103110,  103111,  103112
35254,  3461,  3488,  3489,  3462,  3478,  3670,  3669,  3477,  43582,  43583,  43584,  43524,  44728,  44731,  44730,  
43526,  103113,  103114,  103115,  103116
35255,  129,  132,  3488,  3461,  130,  149,  3670,  3478,  42397,  43581,  43582,  43521,  43569,  44729,  44728,  
43523,  103117,  103118,  103119,  103120
35256,  3264,  3291,  132,  129,  3265,  3479,  149,  130,  42395,  42396,  42397,  42345,  43567,  43570,  43569,  
42347,  103121,  103122,  103123,  103124
35257,  3263,  3290,  3291,  3264,  3266,  3480,  3479,  3265,  42393,  42394,  42395,  42342,  43565,  43568,  43567,  
42344,  103125,  103126,  103127,  103128
35258,  3262,  3289,  3290,  3263,  3267,  3481,  3480,  3266,  42391,  42392,  42393,  42339,  43563,  43566,  43565,  
42341,  103129,  103130,  103131,  103132
35259,  3261,  3288,  3289,  3262,  3268,  3482,  3481,  3267,  42389,  42390,  42391,  42336,  43561,  43564,  43563,  
42338,  103133,  103134,  103135,  103136
35260,  3260,  3287,  3288,  3261,  3269,  3483,  3482,  3268,  42387,  42388,  42389,  42333,  43559,  43562,  43561,  
42335,  103137,  103138,  103139,  103140
35261,  3259,  3286,  3287,  3260,  3270,  3484,  3483,  3269,  42385,  42386,  42387,  42330,  43557,  43560,  43559,  
42332,  103141,  103142,  103143,  103144
35262,  3258,  3285,  3286,  3259,  3271,  3485,  3484,  3270,  42383,  42384,  42385,  42327,  43555,  43558,  43557,  
42329,  103145,  103146,  103147,  103148
35263,  3257,  3284,  3285,  3258,  3272,  3486,  3485,  3271,  42381,  42382,  42383,  42324,  43553,  43556,  43555,  
42326,  103149,  103150,  103151,  103152
35264,  3256,  3283,  3284,  3257,  3273,  3487,  3486,  3272,  42379,  42380,  42381,  42321,  43551,  43554,  43553,  
42323,  103153,  103154,  103155,  103156
35265,  113,  116,  3283,  3256,  114,  131,  3487,  3273,  41165,  42378,  42379,  42318,  42366,  43552,  43551,  
42320,  103157,  103158,  103159,  103160
35266,  3077,  3105,  116,  113,  3078,  3274,  131,  114,  41163,  41164,  41165,  41110,  42364,  42367,  42366,  
41112,  103161,  103162,  103163,  103164
35267,  3076,  3104,  3105,  3077,  3079,  3275,  3274,  3078,  41161,  41162,  41163,  41107,  42362,  42365,  42364,  
41109,  103165,  103166,  103167,  103168
35268,  3075,  3103,  3104,  3076,  3080,  3276,  3275,  3079,  41159,  41160,  41161,  41104,  42360,  42363,  42362,  
41106,  103169,  103170,  103171,  103172
35269,  3074,  3102,  3103,  3075,  3081,  3277,  3276,  3080,  41157,  41158,  41159,  41101,  42358,  42361,  42360,  
41103,  103173,  103174,  103175,  103176
35270,  3073,  3101,  3102,  3074,  3082,  3278,  3277,  3081,  41155,  41156,  41157,  41098,  42356,  42359,  42358,  
41100,  103177,  103178,  103179,  103180
35271,  3072,  3100,  3101,  3073,  3083,  3279,  3278,  3082,  41153,  41154,  41155,  41095,  42354,  42357,  42356,  
41097,  103181,  103182,  103183,  103184
35272,  3071,  3099,  3100,  3072,  3084,  3280,  3279,  3083,  41151,  41152,  41153,  41092,  42352,  42355,  42354,  
41094,  103185,  103186,  103187,  103188
35273,  3070,  3098,  3099,  3071,  3085,  3281,  3280,  3084,  41149,  41150,  41151,  41089,  42350,  42353,  42352,  
41091,  103189,  103190,  103191,  103192
35274,  3069,  3097,  3098,  3070,  3086,  3282,  3281,  3085,  41147,  41148,  41149,  41086,  42348,  42351,  42350,  
41088,  103193,  103194,  103195,  103196
35275,  95,  98,  3097,  3069,  96,  115,  3282,  3086,  39847,  41146,  41147,  41083,  41133,  42349,  42348,  
41085,  103197,  103198,  103199,  103200
35276,  2855,  2885,  98,  95,  2856,  3087,  115,  96,  39845,  39846,  39847,  39790,  41131,  41134,  41133,  
39792,  103201,  103202,  103203,  103204
35277,  2854,  2884,  2885,  2855,  2857,  3088,  3087,  2856,  39843,  39844,  39845,  39787,  41129,  41132,  41131,  
39789,  103205,  103206,  103207,  103208
35278,  2853,  2883,  2884,  2854,  2858,  3089,  3088,  2857,  39841,  39842,  39843,  39784,  41127,  41130,  41129,  
39786,  103209,  103210,  103211,  103212
35279,  2852,  2882,  2883,  2853,  2859,  3090,  3089,  2858,  39839,  39840,  39841,  39781,  41125,  41128,  41127,  
39783,  103213,  103214,  103215,  103216
35280,  2851,  2881,  2882,  2852,  2860,  3091,  3090,  2859,  39837,  39838,  39839,  39778,  41123,  41126,  41125,  
39780,  103217,  103218,  103219,  103220
35281,  2850,  2880,  2881,  2851,  2861,  3092,  3091,  2860,  39835,  39836,  39837,  39775,  41121,  41124,  41123,  
39777,  103221,  103222,  103223,  103224
35282,  2849,  2879,  2880,  2850,  2862,  3093,  3092,  2861,  39833,  39834,  39835,  39772,  41119,  41122,  41121,  
39774,  103225,  103226,  103227,  103228
35283,  2848,  2878,  2879,  2849,  2863,  3094,  3093,  2862,  39831,  39832,  39833,  39769,  41117,  41120,  41119,  
39771,  103229,  103230,  103231,  103232
35284,  2847,  2877,  2878,  2848,  2864,  3095,  3094,  2863,  39829,  39830,  39831,  39766,  41115,  41118,  41117,  
39768,  103233,  103234,  103235,  103236
35285,  2846,  2876,  2877,  2847,  2865,  3096,  3095,  2864,  39827,  39828,  39829,  39763,  41113,  41116,  41115,  
39765,  103237,  103238,  103239,  103240
35286,  79,  82,  2876,  2846,  80,  97,  3096,  2865,  38492,  39826,  39827,  39760,  39813,  41114,  41113,  
39762,  103241,  103242,  103243,  103244
35287,  2652,  2683,  82,  79,  2653,  2866,  97,  80,  38490,  38491,  38492,  38432,  39811,  39814,  39813,  
38434,  103245,  103246,  103247,  103248
35288,  2651,  2682,  2683,  2652,  2654,  2867,  2866,  2653,  38488,  38489,  38490,  38429,  39809,  39812,  39811,  
38431,  103249,  103250,  103251,  103252
35289,  2650,  2681,  2682,  2651,  2655,  2868,  2867,  2654,  38486,  38487,  38488,  38426,  39807,  39810,  39809,  
38428,  103253,  103254,  103255,  103256
35290,  2649,  2680,  2681,  2650,  2656,  2869,  2868,  2655,  38484,  38485,  38486,  38423,  39805,  39808,  39807,  
38425,  103257,  103258,  103259,  103260
35291,  2648,  2679,  2680,  2649,  2657,  2870,  2869,  2656,  38482,  38483,  38484,  38420,  39803,  39806,  39805,  
38422,  103261,  103262,  103263,  103264
35292,  2647,  2678,  2679,  2648,  2658,  2871,  2870,  2657,  38480,  38481,  38482,  38417,  39801,  39804,  39803,  
38419,  103265,  103266,  103267,  103268
35293,  2646,  2677,  2678,  2647,  2659,  2872,  2871,  2658,  38478,  38479,  38480,  38414,  39799,  39802,  39801,  
38416,  103269,  103270,  103271,  103272
35294,  2645,  2676,  2677,  2646,  2660,  2873,  2872,  2659,  38476,  38477,  38478,  38411,  39797,  39800,  39799,  
38413,  103273,  103274,  103275,  103276
35295,  2644,  2675,  2676,  2645,  2661,  2874,  2873,  2660,  38474,  38475,  38476,  38408,  39795,  39798,  39797,  
38410,  103277,  103278,  103279,  103280
35296,  2643,  2674,  2675,  2644,  2662,  2875,  2874,  2661,  38472,  38473,  38474,  38405,  39793,  39796,  39795,  
38407,  103281,  103282,  103283,  103284
35297,  61,  64,  2674,  2643,  62,  81,  2875,  2662,  37003,  38471,  38472,  38402,  38457,  39794,  39793,  
38404,  103285,  103286,  103287,  103288
35298,  2407,  2441,  64,  61,  2408,  2663,  81,  62,  37001,  37002,  37003,  36938,  38455,  38458,  38457,  
36940,  103289,  103290,  103291,  103292
35299,  2406,  2440,  2441,  2407,  2409,  2664,  2663,  2408,  36999,  37000,  37001,  36935,  38453,  38456,  38455,  
36937,  103293,  103294,  103295,  103296
35300,  2405,  2439,  2440,  2406,  2410,  2665,  2664,  2409,  36997,  36998,  36999,  36932,  38451,  38454,  38453,  
36934,  103297,  103298,  103299,  103300
35301,  2404,  2438,  2439,  2405,  2411,  2666,  2665,  2410,  36995,  36996,  36997,  36929,  38449,  38452,  38451,  
36931,  103301,  103302,  103303,  103304
35302,  2403,  2437,  2438,  2404,  2412,  2667,  2666,  2411,  36993,  36994,  36995,  36926,  38447,  38450,  38449,  
36928,  103305,  103306,  103307,  103308
35303,  2402,  2436,  2437,  2403,  2413,  2668,  2667,  2412,  36991,  36992,  36993,  36923,  38445,  38448,  38447,  
36925,  103309,  103310,  103311,  103312
35304,  2401,  2435,  2436,  2402,  2414,  2669,  2668,  2413,  36989,  36990,  36991,  36920,  38443,  38446,  38445,  
36922,  103313,  103314,  103315,  103316
35305,  2400,  2434,  2435,  2401,  2415,  2670,  2669,  2414,  36987,  36988,  36989,  36917,  38441,  38444,  38443,  
36919,  103317,  103318,  103319,  103320
35306,  2399,  2433,  2434,  2400,  2416,  2671,  2670,  2415,  36985,  36986,  36987,  36914,  38439,  38442,  38441,  
36916,  103321,  103322,  103323,  103324
35307,  2398,  2432,  2433,  2399,  2417,  2672,  2671,  2416,  36983,  36984,  36985,  36911,  38437,  38440,  38439,  
36913,  103325,  103326,  103327,  103328
35308,  2397,  2431,  2432,  2398,  2418,  2673,  2672,  2417,  36981,  36982,  36983,  36908,  38435,  38438,  38437,  
36910,  103329,  103330,  103331,  103332
35309,  44,  47,  2431,  2397,  45,  63,  2673,  2418,  35387,  36980,  36981,  36905,  36965,  38436,  38435,  
36907,  103333,  103334,  103335,  103336
35310,  2155,  2192,  47,  44,  2156,  2419,  63,  45,  35385,  35386,  35387,  35317,  36963,  36966,  36965,  
35319,  103337,  103338,  103339,  103340
35311,  2154,  2191,  2192,  2155,  2157,  2420,  2419,  2156,  35383,  35384,  35385,  35314,  36961,  36964,  36963,  
35316,  103341,  103342,  103343,  103344
35312,  2153,  2190,  2191,  2154,  2158,  2421,  2420,  2157,  35381,  35382,  35383,  35311,  36959,  36962,  36961,  
35313,  103345,  103346,  103347,  103348
35313,  2152,  2189,  2190,  2153,  2159,  2422,  2421,  2158,  35379,  35380,  35381,  35308,  36957,  36960,  36959,  
35310,  103349,  103350,  103351,  103352
35314,  2151,  2188,  2189,  2152,  2160,  2423,  2422,  2159,  35377,  35378,  35379,  35305,  36955,  36958,  36957,  
35307,  103353,  103354,  103355,  103356
35315,  2150,  2187,  2188,  2151,  2161,  2424,  2423,  2160,  35375,  35376,  35377,  35302,  36953,  36956,  36955,  
35304,  103357,  103358,  103359,  103360
35316,  2149,  2186,  2187,  2150,  2162,  2425,  2424,  2161,  35373,  35374,  35375,  35299,  36951,  36954,  36953,  
35301,  103361,  103362,  103363,  103364
35317,  2148,  2185,  2186,  2149,  2163,  2426,  2425,  2162,  35371,  35372,  35373,  35296,  36949,  36952,  36951,  
35298,  103365,  103366,  103367,  103368
35318,  2147,  2184,  2185,  2148,  2164,  2427,  2426,  2163,  35369,  35370,  35371,  35293,  36947,  36950,  36949,  
35295,  103369,  103370,  103371,  103372
35319,  2146,  2183,  2184,  2147,  2165,  2428,  2427,  2164,  35367,  35368,  35369,  35290,  36945,  36948,  36947,  
35292,  103373,  103374,  103375,  103376
35320,  2145,  2182,  2183,  2146,  2166,  2429,  2428,  2165,  35365,  35366,  35367,  35287,  36943,  36946,  36945,  
35289,  103377,  103378,  103379,  103380
35321,  2144,  2181,  2182,  2145,  2167,  2430,  2429,  2166,  35363,  35364,  35365,  35284,  36941,  36944,  36943,  
35286,  103381,  103382,  103383,  103384
35322,  3,  11,  2181,  2144,  4,  46,  2430,  2167,  33430,  35362,  35363,  35281,  35346,  36942,  36941,  
35283,  103385,  103386,  103387,  103388
35323,  1732,  1806,  11,  3,  1733,  2168,  46,  4,  33428,  33429,  33430,  33312,  35344,  35347,  35346,  
33314,  103389,  103390,  103391,  103392
35324,  1731,  1805,  1806,  1732,  1734,  2169,  2168,  1733,  33426,  33427,  33428,  33309,  35342,  35345,  35344,  
33311,  103393,  103394,  103395,  103396
35325,  1730,  1804,  1805,  1731,  1735,  2170,  2169,  1734,  33424,  33425,  33426,  33306,  35340,  35343,  35342,  
33308,  103397,  103398,  103399,  103400
35326,  1729,  1803,  1804,  1730,  1736,  2171,  2170,  1735,  33422,  33423,  33424,  33303,  35338,  35341,  35340,  
33305,  103401,  103402,  103403,  103404
35327,  1728,  1802,  1803,  1729,  1737,  2172,  2171,  1736,  33420,  33421,  33422,  33300,  35336,  35339,  35338,  
33302,  103405,  103406,  103407,  103408
35328,  1727,  1801,  1802,  1728,  1738,  2173,  2172,  1737,  33418,  33419,  33420,  33297,  35334,  35337,  35336,  
33299,  103409,  103410,  103411,  103412
35329,  1726,  1800,  1801,  1727,  1739,  2174,  2173,  1738,  33416,  33417,  33418,  33294,  35332,  35335,  35334,  
33296,  103413,  103414,  103415,  103416
35330,  1725,  1799,  1800,  1726,  1740,  2175,  2174,  1739,  33414,  33415,  33416,  33291,  35330,  35333,  35332,  
33293,  103417,  103418,  103419,  103420
35331,  1724,  1798,  1799,  1725,  1741,  2176,  2175,  1740,  33412,  33413,  33414,  33288,  35328,  35331,  35330,  
33290,  103421,  103422,  103423,  103424
35332,  1723,  1797,  1798,  1724,  1742,  2177,  2176,  1741,  33410,  33411,  33412,  33285,  35326,  35329,  35328,  
33287,  103425,  103426,  103427,  103428
35333,  1722,  1796,  1797,  1723,  1743,  2178,  2177,  1742,  33408,  33409,  33410,  33282,  35324,  35327,  35326,  
33284,  103429,  103430,  103431,  103432
35334,  1721,  1795,  1796,  1722,  1744,  2179,  2178,  1743,  33406,  33407,  33408,  33279,  35322,  35325,  35324,  
33281,  103433,  103434,  103435,  103436
35335,  1720,  1794,  1795,  1721,  1745,  2180,  2179,  1744,  33404,  33405,  33406,  33276,  35320,  35323,  35322,  
33278,  103437,  103438,  103439,  103440
35336,  2,  10,  1794,  1720,  1,  5,  2180,  1745,  33402,  33403,  33404,  33273,  33315,  35321,  35320,  
33275,  103441,  103442,  103443,  103444
35337,  10,  2,  12565,  12506,  5,  1,  1777,  1746,  33402,  94433,  94434,  94255,  33315,  33318,  33317,  
33316,  103445,  103446,  103447,  103448
35338,  12506,  12565,  12566,  12507,  1746,  1777,  1776,  1747,  94434,  94435,  94436,  94258,  33317,  33321,  33320,  
33319,  103449,  103450,  103451,  103452
35339,  12507,  12566,  12567,  12508,  1747,  1776,  1775,  1748,  94436,  94437,  94438,  94261,  33320,  33324,  33323,  
33322,  103453,  103454,  103455,  103456
35340,  12508,  12567,  12568,  12509,  1748,  1775,  1774,  1749,  94438,  94439,  94440,  94264,  33323,  33327,  33326,  
33325,  103457,  103458,  103459,  103460
35341,  12509,  12568,  12569,  12510,  1749,  1774,  1773,  1750,  94440,  94441,  94442,  94267,  33326,  33330,  33329,  
33328,  103461,  103462,  103463,  103464
35342,  12510,  12569,  12570,  12511,  1750,  1773,  1772,  1751,  94442,  94443,  94444,  94270,  33329,  33333,  33332,  
33331,  103465,  103466,  103467,  103468
35343,  12511,  12570,  12571,  12512,  1751,  1772,  1771,  1752,  94444,  94445,  94446,  94273,  33332,  33336,  33335,  
33334,  103469,  103470,  103471,  103472
35344,  12512,  12571,  12572,  12513,  1752,  1771,  1770,  1753,  94446,  94447,  94448,  94276,  33335,  33339,  33338,  
33337,  103473,  103474,  103475,  103476
35345,  12513,  12572,  12573,  12514,  1753,  1770,  1769,  1754,  94448,  94449,  94450,  94279,  33338,  33342,  33341,  
33340,  103477,  103478,  103479,  103480
35346,  12514,  12573,  12574,  12515,  1754,  1769,  1768,  1755,  94450,  94451,  94452,  94282,  33341,  33345,  33344,  
33343,  103481,  103482,  103483,  103484
35347,  12515,  12574,  12575,  12516,  1755,  1768,  1767,  1756,  94452,  94453,  94454,  94285,  33344,  33348,  33347,  
33346,  103485,  103486,  103487,  103488
35348,  12516,  12575,  12576,  12517,  1756,  1767,  1766,  1757,  94454,  94455,  94456,  94288,  33347,  33351,  33350,  
33349,  103489,  103490,  103491,  103492
35349,  12517,  12576,  12577,  12518,  1757,  1766,  1765,  1758,  94456,  94457,  94458,  94291,  33350,  33354,  33353,  
33352,  103493,  103494,  103495,  103496
35350,  12518,  12577,  12578,  12519,  1758,  1765,  1764,  1759,  94458,  94459,  94460,  94294,  33353,  33357,  33356,  
33355,  103497,  103498,  103499,  103500
35351,  12519,  12578,  12579,  12520,  1759,  1764,  1763,  1760,  94460,  94461,  94462,  94297,  33356,  33360,  33359,  
33358,  103501,  103502,  103503,  103504
35352,  12520,  12579,  12580,  12521,  1760,  1763,  1762,  1761,  94462,  94463,  94464,  94300,  33359,  33363,  33362,  
33361,  103505,  103506,  103507,  103508
35353,  12521,  12580,  1448,  1442,  1761,  1762,  7,  6,  94464,  94465,  94466,  94303,  33362,  33366,  33365,  
33364,  103509,  103510,  103511,  103512
**
***************
** ELEMENT SETS
***************
*ELSET, ELSET=AUTO_TE_GLUE
34850,  34851,  34852,  34853,  34854,  34855,  34856,  34857,  
34858,  34859,  34860,  34861,  34862,  34863,  34864,  34865,  
34866,  34867,  34868,  34869,  34870,  34871,  34872,  34873,  
34874,  34875,  34876,  34877,  34878,  34879,  34880,  34881,  
34882,  34883,  34884,  34885,  34886,  34887,  34888,  34889,  
34890,  34891,  34892,  34893,  34894,  34895,  34896,  34897,  
34898,  34899,  34900,  34901,  34902,  34903,  34904,  34905,  
34906,  34907,  34908,  34909,  34910,  34911,  34912,  34913,  
34914,  34915,  34916,  34917,  34918,  34919,  34920,  34921,  
34922,  34923,  34924,  34925,  34926,  34927,  34928,  34929,  
34930,  34931,  34932,  34933,  34934,  34935,  34936,  34937,  
34938,  34939,  34940,  34941,  34942,  34943,  34944,  34945,  
34946,  34947,  34948,  34949,  34950,  34951,  34952,  34953,  
34954,  34955,  34956,  34957,  34958,  34959,  34960,  34961,  
34962,  34963,  34964,  34965,  34966,  34967,  34968,  34969,  
34970,  34971,  34972,  34973,  34974,  34975,  34976,  34977,  
34978,  34979,  34980,  34981,  34982,  34983,  34984,  34985,  
34986,  34987,  34988,  34989,  34990,  34991,  34992,  34993,  
34994,  34995,  34996,  34997,  34998,  34999,  35000,  35001,  
35002,  35003,  35004,  35005,  35006,  35007,  35008,  35009,  
35010,  35011,  35012,  35013,  35014,  35015,  35016,  35017,  
35018,  35019,  35020,  35021,  35022,  35023,  35024,  35025,  
35026,  35027,  35028,  35029,  35030,  35031,  35032,  35033,  
35034,  35035,  35036,  35037,  35038,  35039,  35040,  35041,  
35042,  35043,  35044,  35045,  35046,  35047,  35048,  35049,  
35050,  35051,  35052,  35053,  35054,  35055,  35056,  35057,  
35058,  35059,  35060,  35061,  35062,  35063,  35064,  35065,  
35066,  35067,  35068,  35069,  35070,  35071,  35072,  35073,  
35074,  35075,  35076,  35077,  35078,  35079,  35080,  35081,  
35082,  35083,  35084,  35085,  35086,  35087,  35088,  35089,  
35090,  35091,  35092,  35093,  35094,  35095,  35096,  35097,  
35098,  35099,  35100,  35101,  35102,  35103,  35104,  35105,  
35106,  35107,  35108,  35109,  35110,  35111,  35112,  35113,  
35114,  35115,  35116,  35117,  35118,  35119,  35120,  35121,  
35122,  35123,  35124,  35125,  35126,  35127,  35128,  35129,  
35130,  35131,  35132,  35133,  35134,  35135,  35136,  35137,  
35138,  35139,  35140,  35141,  35142,  35143,  35144,  35145,  
35146,  35147,  35148,  35149,  35150,  35151,  35152,  35153,  
35154,  35155,  35156,  35157,  35158,  35159,  35160,  35161,  
35162,  35163,  35164,  35165,  35166,  35167,  35168,  35169,  
35170,  35171,  35172,  35173,  35174,  35175,  35176,  35177,  
35178,  35179,  35180,  35181,  35182,  35183,  35184,  35185,  
35186,  35187,  35188,  35189,  35190,  35191,  35192,  35193,  
35194,  35195,  35196,  35197,  35198,  35199,  35200,  35201,  
35202,  35203,  35204,  35205,  35206,  35207,  35208,  35209,  
35210,  35211,  35212,  35213,  35214,  35215,  35216,  35217,  
35218,  35219,  35220,  35221,  35222,  35223,  35224,  35225,  
35226,  35227,  35228,  35229,  35230,  35231,  35232,  35233,  
35234,  35235,  35236,  35237,  35238,  35239,  35240,  35241,  
35242,  35243,  35244,  35245,  35246,  35247,  35248,  35249,  
35250,  35251,  35252,  35253,  35254,  35255,  35256,  35257,  
35258,  35259,  35260,  35261,  35262,  35263,  35264,  35265,  
35266,  35267,  35268,  35269,  35270,  35271,  35272,  35273,  
35274,  35275,  35276,  35277,  35278,  35279,  35280,  35281,  
35282,  35283,  35284,  35285,  35286,  35287,  35288,  35289,  
35290,  35291,  35292,  35293,  35294,  35295,  35296,  35297,  
35298,  35299,  35300,  35301,  35302,  35303,  35304,  35305,  
35306,  35307,  35308,  35309,  35310,  35311,  35312,  35313,  
35314,  35315,  35316,  35317,  35318,  35319,  35320,  35321,  
35322,  35323,  35324,  35325,  35326,  35327,  35328,  35329,  
35330,  35331,  35332,  35333,  35334,  35335,  35336,  35337,  
35338,  35339,  35340,  35341,  35342,  35343,  35344,  35345,  
35346,  35347,  35348,  35349,  35350,  35351,  35352,  35353
*ELSET, ELSET=AUTO_TE_GLUE_022
34850,  34851,  34852,  34853
*ELSET, ELSET=AUTO_TE_GLUE_023
34854,  34855,  34856,  34857
*ELSET, ELSET=AUTO_TE_GLUE_024
34858,  34859,  34860,  34861
*ELSET, ELSET=AUTO_TE_GLUE_025
34862,  34863,  34864,  34865
*ELSET, ELSET=AUTO_TE_GLUE_026
34866,  34867,  34868,  34869
*ELSET, ELSET=AUTO_TE_GLUE_027
34870,  34871,  34872,  34873
*ELSET, ELSET=AUTO_TE_GLUE_028
34874,  34875,  34876,  34877
*ELSET, ELSET=AUTO_TE_GLUE_029
34878,  34879,  34880,  34881
*ELSET, ELSET=AUTO_TE_GLUE_030
34882,  34883,  34884,  34885
*ELSET, ELSET=AUTO_TE_GLUE_031
34886,  34887,  34888,  34889
*ELSET, ELSET=AUTO_TE_GLUE_032
34890,  34891,  34892,  34893
*ELSET, ELSET=AUTO_TE_GLUE_033
34894,  34895,  34896,  34897
*ELSET, ELSET=AUTO_TE_GLUE_034
34898,  34899,  34900,  34901
*ELSET, ELSET=AUTO_TE_GLUE_035
34902,  34903,  34904,  34905
*ELSET, ELSET=AUTO_TE_GLUE_036
34906,  34907,  34908,  34909
*ELSET, ELSET=AUTO_TE_GLUE_037
34910,  34911,  34912,  34913
*ELSET, ELSET=AUTO_TE_GLUE_038
34914,  34915,  34916,  34917
*ELSET, ELSET=AUTO_TE_GLUE_039
34918,  34919,  34920,  34921
*ELSET, ELSET=AUTO_TE_GLUE_040
34922,  34923,  34924,  34925
*ELSET, ELSET=AUTO_TE_GLUE_041
34926,  34927,  34928,  34929
*ELSET, ELSET=AUTO_TE_GLUE_042
34930,  34931,  34932,  34933
*ELSET, ELSET=AUTO_TE_GLUE_043
34934,  34935,  34936,  34937
*ELSET, ELSET=AUTO_TE_GLUE_044
34938,  34939,  34940,  34941
*ELSET, ELSET=AUTO_TE_GLUE_045
34942,  34943,  34944,  34945
*ELSET, ELSET=AUTO_TE_GLUE_046
34946,  34947,  34948,  34949,  34950
*ELSET, ELSET=AUTO_TE_GLUE_047
34951,  34952,  34953,  34954,  34955
*ELSET, ELSET=AUTO_TE_GLUE_048
34956,  34957,  34958,  34959,  34960
*ELSET, ELSET=AUTO_TE_GLUE_049
34961,  34962,  34963,  34964,  34965
*ELSET, ELSET=AUTO_TE_GLUE_050
34966,  34967,  34968,  34969,  34970
*ELSET, ELSET=AUTO_TE_GLUE_051
34971,  34972,  34973,  34974,  34975
*ELSET, ELSET=AUTO_TE_GLUE_052
34976,  34977,  34978,  34979,  34980
*ELSET, ELSET=AUTO_TE_GLUE_053
34981,  34982,  34983,  34984,  34985
*ELSET, ELSET=AUTO_TE_GLUE_054
34986,  34987,  34988,  34989,  34990
*ELSET, ELSET=AUTO_TE_GLUE_055
34991,  34992,  34993,  34994,  34995
*ELSET, ELSET=AUTO_TE_GLUE_056
34996,  34997,  34998,  34999,  35000
*ELSET, ELSET=AUTO_TE_GLUE_057
35001,  35002,  35003,  35004,  35005
*ELSET, ELSET=AUTO_TE_GLUE_058
35006,  35007,  35008,  35009,  35010
*ELSET, ELSET=AUTO_TE_GLUE_059
35011,  35012,  35013,  35014,  35015
*ELSET, ELSET=AUTO_TE_GLUE_060
35016,  35017,  35018,  35019,  35020
*ELSET, ELSET=AUTO_TE_GLUE_061
35021,  35022,  35023,  35024,  35025,  35026
*ELSET, ELSET=AUTO_TE_GLUE_062
35027,  35028,  35029,  35030,  35031,  35032
*ELSET, ELSET=AUTO_TE_GLUE_063
35033,  35034,  35035,  35036,  35037,  35038
*ELSET, ELSET=AUTO_TE_GLUE_064
35039,  35040,  35041,  35042,  35043,  35044
*ELSET, ELSET=AUTO_TE_GLUE_065
35045,  35046,  35047,  35048,  35049,  35050
*ELSET, ELSET=AUTO_TE_GLUE_066
35051,  35052,  35053,  35054,  35055,  35056
*ELSET, ELSET=AUTO_TE_GLUE_067
35057,  35058,  35059,  35060,  35061,  35062
*ELSET, ELSET=AUTO_TE_GLUE_068
35063,  35064,  35065,  35066,  35067,  35068
*ELSET, ELSET=AUTO_TE_GLUE_069
35069,  35070,  35071,  35072,  35073,  35074
*ELSET, ELSET=AUTO_TE_GLUE_070
35075,  35076,  35077,  35078,  35079,  35080
*ELSET, ELSET=AUTO_TE_GLUE_071
35081,  35082,  35083,  35084,  35085,  35086
*ELSET, ELSET=AUTO_TE_GLUE_072
35087,  35088,  35089,  35090,  35091,  35092,  35093
*ELSET, ELSET=AUTO_TE_GLUE_073
35094,  35095,  35096,  35097,  35098,  35099,  35100
*ELSET, ELSET=AUTO_TE_GLUE_074
35101,  35102,  35103,  35104,  35105,  35106,  35107
*ELSET, ELSET=AUTO_TE_GLUE_075
35108,  35109,  35110,  35111,  35112,  35113,  35114
*ELSET, ELSET=AUTO_TE_GLUE_076
35115,  35116,  35117,  35118,  35119,  35120,  35121
*ELSET, ELSET=AUTO_TE_GLUE_077
35122,  35123,  35124,  35125,  35126,  35127,  35128
*ELSET, ELSET=AUTO_TE_GLUE_078
35129,  35130,  35131,  35132,  35133,  35134,  35135
*ELSET, ELSET=AUTO_TE_GLUE_079
35136,  35137,  35138,  35139,  35140,  35141,  35142
*ELSET, ELSET=AUTO_TE_GLUE_080
35143,  35144,  35145,  35146,  35147,  35148,  35149,  35150
*ELSET, ELSET=AUTO_TE_GLUE_081
35151,  35152,  35153,  35154,  35155,  35156,  35157,  35158
*ELSET, ELSET=AUTO_TE_GLUE_082
35159,  35160,  35161,  35162,  35163,  35164,  35165,  35166
*ELSET, ELSET=AUTO_TE_GLUE_083
35167,  35168,  35169,  35170,  35171,  35172,  35173,  35174
*ELSET, ELSET=AUTO_TE_GLUE_084
35175,  35176,  35177,  35178,  35179,  35180,  35181,  35182
*ELSET, ELSET=AUTO_TE_GLUE_085
35183,  35184,  35185,  35186,  35187,  35188,  35189,  35190
*ELSET, ELSET=AUTO_TE_GLUE_086
35191,  35192,  35193,  35194,  35195,  35196,  35197,  35198,  
35199
*ELSET, ELSET=AUTO_TE_GLUE_087
35200,  35201,  35202,  35203,  35204,  35205,  35206,  35207,  
35208
*ELSET, ELSET=AUTO_TE_GLUE_088
35209,  35210,  35211,  35212,  35213,  35214,  35215,  35216,  
35217
*ELSET, ELSET=AUTO_TE_GLUE_089
35218,  35219,  35220,  35221,  35222,  35223,  35224,  35225,  
35226
*ELSET, ELSET=AUTO_TE_GLUE_090
35227,  35228,  35229,  35230,  35231,  35232,  35233,  35234,  
35235
*ELSET, ELSET=AUTO_TE_GLUE_091
35236,  35237,  35238,  35239,  35240,  35241,  35242,  35243,  
35244,  35245
*ELSET, ELSET=AUTO_TE_GLUE_092
35246,  35247,  35248,  35249,  35250,  35251,  35252,  35253,  
35254,  35255
*ELSET, ELSET=AUTO_TE_GLUE_093
35256,  35257,  35258,  35259,  35260,  35261,  35262,  35263,  
35264,  35265
*ELSET, ELSET=AUTO_TE_GLUE_094
35266,  35267,  35268,  35269,  35270,  35271,  35272,  35273,  
35274,  35275
*ELSET, ELSET=AUTO_TE_GLUE_095
35276,  35277,  35278,  35279,  35280,  35281,  35282,  35283,  
35284,  35285,  35286
*ELSET, ELSET=AUTO_TE_GLUE_096
35287,  35288,  35289,  35290,  35291,  35292,  35293,  35294,  
35295,  35296,  35297
*ELSET, ELSET=AUTO_TE_GLUE_097
35298,  35299,  35300,  35301,  35302,  35303,  35304,  35305,  
35306,  35307,  35308,  35309
*ELSET, ELSET=AUTO_TE_GLUE_098
35310,  35311,  35312,  35313,  35314,  35315,  35316,  35317,  
35318,  35319,  35320,  35321,  35322
*ELSET, ELSET=AUTO_TE_GLUE_099
35323,  35324,  35325,  35326,  35327,  35328,  35329,  35330,  
35331,  35332,  35333,  35334,  35335,  35336
*ELSET, ELSET=AUTO_TE_GLUE_100
35337,  35338,  35339,  35340,  35341,  35342,  35343,  35344,  
35345,  35346,  35347,  35348,  35349,  35350,  35351,  35352,  
35353
*ELSET, ELSET=BLADE-1_SEC022
34850,  34851,  34852,  34853
*ELSET, ELSET=BLADE-1_SEC023
34854,  34855,  34856,  34857
*ELSET, ELSET=BLADE-1_SEC024
34858,  34859,  34860,  34861
*ELSET, ELSET=BLADE-1_SEC025
34862,  34863,  34864,  34865
*ELSET, ELSET=BLADE-1_SEC026
34866,  34867,  34868,  34869
*ELSET, ELSET=BLADE-1_SEC027
34870,  34871,  34872,  34873
*ELSET, ELSET=BLADE-1_SEC028
34874,  34875,  34876,  34877
*ELSET, ELSET=BLADE-1_SEC029
34878,  34879,  34880,  34881
*ELSET, ELSET=BLADE-1_SEC030
34882,  34883,  34884,  34885
*ELSET, ELSET=BLADE-1_SEC031
34886,  34887,  34888,  34889
*ELSET, ELSET=BLADE-1_SEC032
34890,  34891,  34892,  34893
*ELSET, ELSET=BLADE-1_SEC033
34894,  34895,  34896,  34897
*ELSET, ELSET=BLADE-1_SEC034
34898,  34899,  34900,  34901
*ELSET, ELSET=BLADE-1_SEC035
34902,  34903,  34904,  34905
*ELSET, ELSET=BLADE-1_SEC036
34906,  34907,  34908,  34909
*ELSET, ELSET=BLADE-1_SEC037
34910,  34911,  34912,  34913
*ELSET, ELSET=BLADE-1_SEC038
34914,  34915,  34916,  34917
*ELSET, ELSET=BLADE-1_SEC039
34918,  34919,  34920,  34921
*ELSET, ELSET=BLADE-1_SEC040
34922,  34923,  34924,  34925
*ELSET, ELSET=BLADE-1_SEC041
34926,  34927,  34928,  34929
*ELSET, ELSET=BLADE-1_SEC042
34930,  34931,  34932,  34933
*ELSET, ELSET=BLADE-1_SEC043
34934,  34935,  34936,  34937
*ELSET, ELSET=BLADE-1_SEC044
34938,  34939,  34940,  34941
*ELSET, ELSET=BLADE-1_SEC045
34942,  34943,  34944,  34945
*ELSET, ELSET=BLADE-1_SEC046
34946,  34947,  34948,  34949,  34950
*ELSET, ELSET=BLADE-1_SEC047
34951,  34952,  34953,  34954,  34955
*ELSET, ELSET=BLADE-1_SEC048
34956,  34957,  34958,  34959,  34960
*ELSET, ELSET=BLADE-1_SEC049
34961,  34962,  34963,  34964,  34965
*ELSET, ELSET=BLADE-1_SEC050
34966,  34967,  34968,  34969,  34970
*ELSET, ELSET=BLADE-1_SEC051
34971,  34972,  34973,  34974,  34975
*ELSET, ELSET=BLADE-1_SEC052
34976,  34977,  34978,  34979,  34980
*ELSET, ELSET=BLADE-1_SEC053
34981,  34982,  34983,  34984,  34985
*ELSET, ELSET=BLADE-1_SEC054
34986,  34987,  34988,  34989,  34990
*ELSET, ELSET=BLADE-1_SEC055
34991,  34992,  34993,  34994,  34995
*ELSET, ELSET=BLADE-1_SEC056
34996,  34997,  34998,  34999,  35000
*ELSET, ELSET=BLADE-1_SEC057
35001,  35002,  35003,  35004,  35005
*ELSET, ELSET=BLADE-1_SEC058
35006,  35007,  35008,  35009,  35010
*ELSET, ELSET=BLADE-1_SEC059
35011,  35012,  35013,  35014,  35015
*ELSET, ELSET=BLADE-1_SEC060
35016,  35017,  35018,  35019,  35020
*ELSET, ELSET=BLADE-1_SEC061
35021,  35022,  35023,  35024,  35025,  35026
*ELSET, ELSET=BLADE-1_SEC062
35027,  35028,  35029,  35030,  35031,  35032
*ELSET, ELSET=BLADE-1_SEC063
35033,  35034,  35035,  35036,  35037,  35038
*ELSET, ELSET=BLADE-1_SEC064
35039,  35040,  35041,  35042,  35043,  35044
*ELSET, ELSET=BLADE-1_SEC065
35045,  35046,  35047,  35048,  35049,  35050
*ELSET, ELSET=BLADE-1_SEC066
35051,  35052,  35053,  35054,  35055,  35056
*ELSET, ELSET=BLADE-1_SEC067
35057,  35058,  35059,  35060,  35061,  35062
*ELSET, ELSET=BLADE-1_SEC068
35063,  35064,  35065,  35066,  35067,  35068
*ELSET, ELSET=BLADE-1_SEC069
35069,  35070,  35071,  35072,  35073,  35074
*ELSET, ELSET=BLADE-1_SEC070
35075,  35076,  35077,  35078,  35079,  35080
*ELSET, ELSET=BLADE-1_SEC071
35081,  35082,  35083,  35084,  35085,  35086
*ELSET, ELSET=BLADE-1_SEC072
35087,  35088,  35089,  35090,  35091,  35092,  35093
*ELSET, ELSET=BLADE-1_SEC073
35094,  35095,  35096,  35097,  35098,  35099,  35100
*ELSET, ELSET=BLADE-1_SEC074
35101,  35102,  35103,  35104,  35105,  35106,  35107
*ELSET, ELSET=BLADE-1_SEC075
35108,  35109,  35110,  35111,  35112,  35113,  35114
*ELSET, ELSET=BLADE-1_SEC076
35115,  35116,  35117,  35118,  35119,  35120,  35121
*ELSET, ELSET=BLADE-1_SEC077
35122,  35123,  35124,  35125,  35126,  35127,  35128
*ELSET, ELSET=BLADE-1_SEC078
35129,  35130,  35131,  35132,  35133,  35134,  35135
*ELSET, ELSET=BLADE-1_SEC079
35136,  35137,  35138,  35139,  35140,  35141,  35142
*ELSET, ELSET=BLADE-1_SEC080
35143,  35144,  35145,  35146,  35147,  35148,  35149,  35150
*ELSET, ELSET=BLADE-1_SEC081
35151,  35152,  35153,  35154,  35155,  35156,  35157,  35158
*ELSET, ELSET=BLADE-1_SEC082
35159,  35160,  35161,  35162,  35163,  35164,  35165,  35166
*ELSET, ELSET=BLADE-1_SEC083
35167,  35168,  35169,  35170,  35171,  35172,  35173,  35174
*ELSET, ELSET=BLADE-1_SEC084
35175,  35176,  35177,  35178,  35179,  35180,  35181,  35182
*ELSET, ELSET=BLADE-1_SEC085
35183,  35184,  35185,  35186,  35187,  35188,  35189,  35190
*ELSET, ELSET=BLADE-1_SEC086
35191,  35192,  35193,  35194,  35195,  35196,  35197,  35198,  
35199
*ELSET, ELSET=BLADE-1_SEC087
35200,  35201,  35202,  35203,  35204,  35205,  35206,  35207,  
35208
*ELSET, ELSET=BLADE-1_SEC088
35209,  35210,  35211,  35212,  35213,  35214,  35215,  35216,  
35217
*ELSET, ELSET=BLADE-1_SEC089
35218,  35219,  35220,  35221,  35222,  35223,  35224,  35225,  
35226
*ELSET, ELSET=BLADE-1_SEC090
35227,  35228,  35229,  35230,  35231,  35232,  35233,  35234,  
35235
*ELSET, ELSET=BLADE-1_SEC091
35236,  35237,  35238,  35239,  35240,  35241,  35242,  35243,  
35244,  35245
*ELSET, ELSET=BLADE-1_SEC092
35246,  35247,  35248,  35249,  35250,  35251,  35252,  35253,  
35254,  35255
*ELSET, ELSET=BLADE-1_SEC093
35256,  35257,  35258,  35259,  35260,  35261,  35262,  35263,  
35264,  35265
*ELSET, ELSET=BLADE-1_SEC094
35266,  35267,  35268,  35269,  35270,  35271,  35272,  35273,  
35274,  35275
*ELSET, ELSET=BLADE-1_SEC095
35276,  35277,  35278,  35279,  35280,  35281,  35282,  35283,  
35284,  35285,  35286
*ELSET, ELSET=BLADE-1_SEC096
35287,  35288,  35289,  35290,  35291,  35292,  35293,  35294,  
35295,  35296,  35297
*ELSET, ELSET=BLADE-1_SEC097
35298,  35299,  35300,  35301,  35302,  35303,  35304,  35305,  
35306,  35307,  35308,  35309
*ELSET, ELSET=BLADE-1_SEC098
35310,  35311,  35312,  35313,  35314,  35315,  35316,  35317,  
35318,  35319,  35320,  35321,  35322
*ELSET, ELSET=BLADE-1_SEC099
35323,  35324,  35325,  35326,  35327,  35328,  35329,  35330,  
35331,  35332,  35333,  35334,  35335,  35336
*ELSET, ELSET=BLADE-1_SEC100
35337,  35338,  35339,  35340,  35341,  35342,  35343,  35344,  
35345,  35346,  35347,  35348,  35349,  35350,  35351,  35352,  
35353
**
***************
** SOLID SECTION
***************
*SOLID SECTION, ELSET=AUTO_TE_GLUE, MATERIAL=TE_GLUE_MAT, ORIENTATION=TE_GLUE_ORI
1.0
